LAMMPS (7 Dec 2015)
# 2d Lennard-Jones melt and subsequent energy minimization

variable bisLoops equal 1
variable bisSteps equal 100

units		metal
dimension	3
atom_style	charge

pair_style buck/coul/long 10.0
read_data pos.dat
  triclinic box = (-25 -25 -25) to (25 25 25) with tilt (0 0 0)
  1 by 1 by 2 MPI processor grid
  reading atoms ...
  3 atoms

kspace_style    ewald 1.0e-6
pair_modify     shift yes
pair_coeff      1 2 18003.7572 0.2052048 133.5381
pair_coeff      2 2 1388.77300 0.3623188 175.0000
pair_coeff      1 1 0.00000000 1.0000000 0.000000
neighbor        1.0 nsq
neigh_modify    every 1 delay 1 check yes


timestep 0.001
fix 1 all nve
group frozen id 1 3 4
2 atoms in group frozen
group moving id 2
1 atoms in group moving
fix freeze frozen setforce 0.0 0.0 0.0
#fix 1 all nvt temp 1000.0 1000.0 0.25
#velocity all create 300.0 4928459
#thermo		50

min_style cg

dump	1	all	atom	1	dump.min
dump_modify 1 scale no
fix mfreeze moving setforce 0.0 0.0 0.0
#velocity moving set 32.485 0.0 0.0
velocity moving set 60 0.0 0.0
thermo 1
run 100
Ewald initialization ...
  G vector (1/distance) = 0.301603
  estimated absolute RMS force accuracy = 1.61219e-05
  estimated relative force accuracy = 1.11961e-06
  KSpace vectors: actual max1d max3d = 7073 15 14895
                  kxmax kymax kzmax  = 15 15 15
Neighbor list info ...
  1 neighbor list requests
  update every 1 steps, delay 1 steps, check yes
  max neighbors/atom: 2000, page size: 100000
  master list distance cutoff = 11
  ghost atom cutoff = 11
Memory usage per processor = 3.68382 Mbytes
Step Temp E_pair E_mol TotEng Press 
       0    20267.431   -24.891646            0   -19.652104   -66.782116 
       1    20267.431    -24.25431            0   -19.014768   -65.812649 
       2    20267.431   -23.646641            0   -18.407099   -64.274932 
       3    20267.431   -23.070141            0   -17.830599   -62.352756 
       4    20267.431   -22.525156            0   -17.285614    -60.18824 
       5    20267.431    -22.01124            0   -16.771698   -57.889233 
       6    20267.431   -21.527413            0   -16.287871   -55.535932 
       7    20267.431   -21.072376            0   -15.832834    -53.18671 
       8    20267.431   -20.644629            0   -15.405087   -50.882815 
       9    20267.431   -20.242601            0   -15.003059   -48.652468 
      10    20267.431   -19.864703            0    -14.62516   -46.513941 
      11    20267.431    -19.50938            0   -14.269838   -44.478125 
      12    20267.431    -19.17514            0   -13.935597   -42.550457 
      13    20267.431   -18.860578            0   -13.621036   -40.732518 
      14    20267.431   -18.564378            0   -13.324836   -39.023127 
      15    20267.431   -18.285316            0   -13.045774   -37.419236 
      16    20267.431   -18.022267            0   -12.782725    -35.91661 
      17    20267.431   -17.774198            0   -12.534656   -34.510326 
      18    20267.431   -17.540162            0    -12.30062   -33.195081 
      19    20267.431   -17.319294            0   -12.079752   -31.965461 
      20    20267.431   -17.110809            0   -11.871266    -30.81616 
      21    20267.431    -16.91398            0   -11.674438    -29.74197 
      22    20267.431   -16.728155            0   -11.488613    -28.73801 
      23    20267.431   -16.552734            0   -11.313192   -27.799652 
      24    20267.431   -16.387175            0   -11.147633   -26.922634 
      25    20267.431   -16.230975            0   -10.991433   -26.102955 
      26    20267.431   -16.083687            0   -10.844145   -25.337021 
      27    20267.431   -15.944894            0   -10.705352    -24.62147 
      28    20267.431   -15.814215            0   -10.574673    -23.95325 
      29    20267.431   -15.691309            0   -10.451767   -23.329621 
      30    20267.431   -15.575858            0   -10.336316   -22.748069 
      31    20267.431   -15.467575            0   -10.228033   -22.206322 
      32    20267.431   -15.366196            0   -10.126654   -21.702322 
      33    20267.431    -15.27148            0   -10.031937   -21.234204 
      34    20267.431    -15.18321            0   -9.9436674   -20.800329 
      35    20267.431    -15.10118            0    -9.861638   -20.399122 
      36    20267.431   -15.025216            0    -9.785674    -20.02932 
      37    20267.431   -14.955147            0   -9.7156044   -19.689628 
      38    20267.431   -14.890825            0   -9.6512825      -19.379 
      39    20267.431   -14.832114            0    -9.592572   -19.096451 
      40    20267.431   -14.778893            0   -9.5393511   -18.841114 
      41    20267.431   -14.731054            0   -9.4915115   -18.612239 
      42    20267.431   -14.688498            0   -9.4489562   -18.409144 
      43    20267.431   -14.651143            0   -9.4116013   -18.231259 
      44    20267.431   -14.618914            0   -9.3793722    -18.07807 
      45    20267.431   -14.591749            0   -9.3522065   -17.949153 
      46    20267.431   -14.569593            0   -9.3300509   -17.844149 
      47    20267.431   -14.552405            0   -9.3128632   -17.762778 
      48    20267.431   -14.540151            0   -9.3006087   -17.704801 
      49    20267.431   -14.532808            0   -9.2932659   -17.670082 
      50    20267.431   -14.530361            0   -9.2908192   -17.658509 
      51    20267.431   -14.532808            0   -9.2932659   -17.670082 
      52    20267.431   -14.540151            0   -9.3006087   -17.704801 
      53    20267.431   -14.552405            0   -9.3128632   -17.762778 
      54    20267.431   -14.569593            0   -9.3300509   -17.844149 
      55    20267.431   -14.591749            0   -9.3522065   -17.949153 
      56    20267.431   -14.618914            0   -9.3793722    -18.07807 
      57    20267.431   -14.651143            0   -9.4116013   -18.231259 
      58    20267.431   -14.688498            0   -9.4489562   -18.409144 
      59    20267.431   -14.731054            0   -9.4915115   -18.612239 
      60    20267.431   -14.778893            0   -9.5393511   -18.841114 
      61    20267.431   -14.832114            0    -9.592572   -19.096451 
      62    20267.431   -14.890825            0   -9.6512825      -19.379 
      63    20267.431   -14.955147            0   -9.7156044   -19.689628 
      64    20267.431   -15.025216            0    -9.785674    -20.02932 
      65    20267.431    -15.10118            0    -9.861638   -20.399122 
      66    20267.431    -15.18321            0   -9.9436674   -20.800329 
      67    20267.431    -15.27148            0   -10.031937   -21.234204 
      68    20267.431   -15.366196            0   -10.126654   -21.702322 
      69    20267.431   -15.467575            0   -10.228033   -22.206322 
      70    20267.431   -15.575858            0   -10.336316   -22.748069 
      71    20267.431   -15.691309            0   -10.451767   -23.329621 
      72    20267.431   -15.814215            0   -10.574673    -23.95325 
      73    20267.431   -15.944894            0   -10.705352    -24.62147 
      74    20267.431   -16.083687            0   -10.844145   -25.337021 
      75    20267.431   -16.230975            0   -10.991433   -26.102955 
      76    20267.431   -16.387175            0   -11.147633   -26.922634 
      77    20267.431   -16.552734            0   -11.313192   -27.799652 
      78    20267.431   -16.728155            0   -11.488613    -28.73801 
      79    20267.431    -16.91398            0   -11.674438    -29.74197 
      80    20267.431   -17.110809            0   -11.871266    -30.81616 
      81    20267.431   -17.319294            0   -12.079752   -31.965461 
      82    20267.431   -17.540162            0    -12.30062   -33.195081 
      83    20267.431   -17.774198            0   -12.534656   -34.510326 
      84    20267.431   -18.022267            0   -12.782725    -35.91661 
      85    20267.431   -18.285316            0   -13.045774   -37.419236 
      86    20267.431   -18.564378            0   -13.324836   -39.023127 
      87    20267.431   -18.860578            0   -13.621036   -40.732518 
      88    20267.431    -19.17514            0   -13.935597   -42.550457 
      89    20267.431    -19.50938            0   -14.269838   -44.478125 
      90    20267.431   -19.864703            0    -14.62516   -46.513941 
      91    20267.431   -20.242601            0   -15.003059   -48.652468 
      92    20267.431   -20.644629            0   -15.405087   -50.882815 
      93    20267.431   -21.072376            0   -15.832834    -53.18671 
      94    20267.431   -21.527413            0   -16.287871   -55.535932 
      95    20267.431    -22.01124            0   -16.771698   -57.889233 
      96    20267.431   -22.525156            0   -17.285614    -60.18824 
      97    20267.431   -23.070141            0   -17.830599   -62.352756 
      98    20267.431   -23.646641            0   -18.407099   -64.274932 
      99    20267.431    -24.25431            0   -19.014768   -65.812649 
     100    20267.431   -24.891646            0   -19.652104   -66.782116 
Loop time of 0.0629547 on 2 procs for 100 steps with 3 atoms

Performance: 137.242 ns/day, 0.175 hours/ns, 1588.445 timesteps/s
97.7% CPU use with 2 MPI tasks x no OpenMP threads

MPI task timing breakdown:
Section |  min time  |  avg time  |  max time  |%varavg| %total
---------------------------------------------------------------
Pair    | 3.7909e-05 | 5.3406e-05 | 6.8903e-05 |   0.2 |  0.08
Kspace  | 0.030843   | 0.044296   | 0.057749   |   6.4 | 70.36
Neigh   | 2.1458e-06 | 2.9802e-06 | 3.8147e-06 |   0.0 |  0.00
Comm    | 0.00021482 | 0.00021636 | 0.00021791 |   0.0 |  0.34
Output  | 0.0044487  | 0.01805    | 0.031651   |  10.1 | 28.67
Modify  | 4.9353e-05 | 5.4598e-05 | 5.9843e-05 |   0.1 |  0.09
Other   |            | 0.0002815  |            |       |  0.45

Nlocal:    1.5 ave 3 max 0 min
Histogram: 1 0 0 0 0 0 0 0 0 1
Nghost:    1.5 ave 3 max 0 min
Histogram: 1 0 0 0 0 0 0 0 0 1
Neighs:    1.5 ave 3 max 0 min
Histogram: 1 0 0 0 0 0 0 0 0 1

Total # of neighbors = 3
Ave neighs/atom = 1
Neighbor list builds = 11
Dangerous builds = 0
thermo 50
undump 1
unfix mfreeze
bisection 100 0.010 FMD dump.min
  triclinic box = (-25 -25 -25) to (25 25 25) with tilt (0 0 0)
  3 atoms before read
  3 atoms in snapshot
  0 atoms purged
  3 atoms replaced
  0 atoms trimmed
  0 atoms added
  3 atoms after read
WARNING: Resetting reneighboring criteria during minimization (../min.cpp:168)
Ewald initialization ...
  G vector (1/distance) = 0.301603
  estimated absolute RMS force accuracy = 1.61219e-05
  estimated relative force accuracy = 1.11961e-06
  KSpace vectors: actual max1d max3d = 7073 15 14895
                  kxmax kymax kzmax  = 15 15 15
Neighbor list info ...
  1 neighbor list requests
  update every 1 steps, delay 0 steps, check yes
  max neighbors/atom: 2000, page size: 100000
  master list distance cutoff = 11
  ghost atom cutoff = 11
Memory usage per processor = 6.68765 Mbytes
Step Temp E_pair E_mol TotEng Press 
       0    20267.431   -24.891646            0   -19.652104   -66.782116 
      10    20267.431   -30.527911            0   -25.288369    29.771681 
Loop time of 0.00810456 on 2 procs for 10 steps with 3 atoms

98.7% CPU use with 2 MPI tasks x no OpenMP threads

Minimization stats:
  Stopping criterion = force tolerance
  Energy initial, next-to-last, final = 
        -24.8916460866      -30.527911031     -30.5279110311
  Force two-norm initial, final = 10.855 3.66736e-10
  Force max component initial, final = 10.855 3.66736e-10
  Final line search alpha, max atom move = 1 3.66736e-10
  Iterations, force evaluations = 10 14

MPI task timing breakdown:
Section |  min time  |  avg time  |  max time  |%varavg| %total
---------------------------------------------------------------
Pair    | 4.2915e-06 | 7.6294e-06 | 1.0967e-05 |   0.1 |  0.09
Kspace  | 0.0040193  | 0.0059789  | 0.0079386  |   2.5 | 73.77
Neigh   | 9.5367e-07 | 9.5367e-07 | 9.5367e-07 |   0.0 |  0.01
Comm    | 2.2888e-05 | 2.3961e-05 | 2.5034e-05 |   0.0 |  0.30
Output  | 0          | 0          | 0          |   0.0 |  0.00
Modify  | 2.861e-06  | 3.4571e-06 | 4.0531e-06 |   0.0 |  0.04
Other   |            | 0.00209    |            |       | 25.78

Nlocal:    1.5 ave 3 max 0 min
Histogram: 1 0 0 0 0 0 0 0 0 1
Nghost:    1.5 ave 3 max 0 min
Histogram: 1 0 0 0 0 0 0 0 0 1
Neighs:    1.5 ave 3 max 0 min
Histogram: 1 0 0 0 0 0 0 0 0 1

Total # of neighbors = 3
Ave neighs/atom = 1
Neighbor list builds = 1
Dangerous builds = 0
  triclinic box = (-25 -25 -25) to (25 25 25) with tilt (0 0 0)
  3 atoms before read
  3 atoms in snapshot
  0 atoms purged
  3 atoms replaced
  0 atoms trimmed
  0 atoms added
  3 atoms after read
WARNING: Resetting reneighboring criteria during minimization (../min.cpp:168)
Ewald initialization ...
  G vector (1/distance) = 0.301603
  estimated absolute RMS force accuracy = 1.61219e-05
  estimated relative force accuracy = 1.11961e-06
  KSpace vectors: actual max1d max3d = 7073 15 14895
                  kxmax kymax kzmax  = 15 15 15
Memory usage per processor = 6.68765 Mbytes
Step Temp E_pair E_mol TotEng Press 
     100    20267.431   -24.891646            0   -19.652104   -66.782116 
     110    20267.431   -30.527911            0   -25.288369    29.771681 
Loop time of 0.00802088 on 2 procs for 10 steps with 3 atoms

99.7% CPU use with 2 MPI tasks x no OpenMP threads

Minimization stats:
  Stopping criterion = force tolerance
  Energy initial, next-to-last, final = 
        -24.8916460866      -30.527911031     -30.5279110311
  Force two-norm initial, final = 10.855 3.66811e-10
  Force max component initial, final = 10.855 3.66811e-10
  Final line search alpha, max atom move = 1 3.66811e-10
  Iterations, force evaluations = 10 14

MPI task timing breakdown:
Section |  min time  |  avg time  |  max time  |%varavg| %total
---------------------------------------------------------------
Pair    | 2.861e-06  | 4.8876e-06 | 6.9141e-06 |   0.1 |  0.06
Kspace  | 0.0039623  | 0.0059208  | 0.0078793  |   2.5 | 73.82
Neigh   | 0          | 0          | 0          |   0.0 |  0.00
Comm    | 2.6703e-05 | 2.8491e-05 | 3.0279e-05 |   0.0 |  0.36
Output  | 0          | 0          | 0          |   0.0 |  0.00
Modify  | 0          | 2.5034e-06 | 5.0068e-06 |   0.2 |  0.03
Other   |            | 0.002064   |            |       | 25.74

Nlocal:    1.5 ave 3 max 0 min
Histogram: 1 0 0 0 0 0 0 0 0 1
Nghost:    1.5 ave 3 max 0 min
Histogram: 1 0 0 0 0 0 0 0 0 1
Neighs:    1.5 ave 3 max 0 min
Histogram: 1 0 0 0 0 0 0 0 0 1

Total # of neighbors = 3
Ave neighs/atom = 1
Neighbor list builds = 1
Dangerous builds = 0
  triclinic box = (-25 -25 -25) to (25 25 25) with tilt (0 0 0)
  3 atoms before read
  3 atoms in snapshot
  0 atoms purged
  3 atoms replaced
  0 atoms trimmed
  0 atoms added
  3 atoms after read
WARNING: Resetting reneighboring criteria during minimization (../min.cpp:168)
Ewald initialization ...
  G vector (1/distance) = 0.301603
  estimated absolute RMS force accuracy = 1.61219e-05
  estimated relative force accuracy = 1.11961e-06
  KSpace vectors: actual max1d max3d = 7073 15 14895
                  kxmax kymax kzmax  = 15 15 15
Memory usage per processor = 6.68765 Mbytes
Step Temp E_pair E_mol TotEng Press 
      50    20267.431   -14.530361            0   -9.2908192   -17.658509 
      51    20267.431   -14.530361            0   -9.2908192   -17.658509 
Loop time of 0.00169396 on 2 procs for 1 steps with 3 atoms

88.5% CPU use with 2 MPI tasks x no OpenMP threads

Minimization stats:
  Stopping criterion = quadratic factors are zero
  Energy initial, next-to-last, final = 
        -14.5303613455     -14.5303613455     -14.5303613455
  Force two-norm initial, final = 2.44661e-15 2.44661e-15
  Force max component initial, final = 2.44661e-15 2.44661e-15
  Final line search alpha, max atom move = 1 2.44661e-15
  Iterations, force evaluations = 1 2

MPI task timing breakdown:
Section |  min time  |  avg time  |  max time  |%varavg| %total
---------------------------------------------------------------
Pair    | 9.5367e-07 | 1.4305e-06 | 1.9073e-06 |   0.0 |  0.08
Kspace  | 0.00081992 | 0.0012114  | 0.0016029  |   1.1 | 71.51
Neigh   | 0          | 0          | 0          |   0.0 |  0.00
Comm    | 5.2452e-06 | 5.722e-06  | 6.1989e-06 |   0.0 |  0.34
Output  | 0          | 0          | 0          |   0.0 |  0.00
Modify  | 9.5367e-07 | 1.4305e-06 | 1.9073e-06 |   0.0 |  0.08
Other   |            | 0.000474   |            |       | 27.98

Nlocal:    1.5 ave 3 max 0 min
Histogram: 1 0 0 0 0 0 0 0 0 1
Nghost:    1.5 ave 3 max 0 min
Histogram: 1 0 0 0 0 0 0 0 0 1
Neighs:    1.5 ave 3 max 0 min
Histogram: 1 0 0 0 0 0 0 0 0 1

Total # of neighbors = 3
Ave neighs/atom = 1
Neighbor list builds = 0
Dangerous builds = 0
  triclinic box = (-25 -25 -25) to (25 25 25) with tilt (0 0 0)
  3 atoms before read
  3 atoms in snapshot
  0 atoms purged
  3 atoms replaced
  0 atoms trimmed
  0 atoms added
  3 atoms after read
WARNING: Resetting reneighboring criteria during minimization (../min.cpp:168)
Ewald initialization ...
  G vector (1/distance) = 0.301603
  estimated absolute RMS force accuracy = 1.61219e-05
  estimated relative force accuracy = 1.11961e-06
  KSpace vectors: actual max1d max3d = 7073 15 14895
                  kxmax kymax kzmax  = 15 15 15
Memory usage per processor = 6.68765 Mbytes
Step Temp E_pair E_mol TotEng Press 
      25    20267.431   -16.230975            0   -10.991433   -26.102955 
      50    20267.431   -30.527911            0   -25.288369    29.771681 
Loop time of 0.016073 on 2 procs for 25 steps with 3 atoms

99.5% CPU use with 2 MPI tasks x no OpenMP threads

Minimization stats:
  Stopping criterion = force tolerance
  Energy initial, next-to-last, final = 
         -16.230975483      -30.527911031     -30.5279110311
  Force two-norm initial, final = 2.52785 3.66736e-10
  Force max component initial, final = 2.52785 3.66736e-10
  Final line search alpha, max atom move = 1 3.66736e-10
  Iterations, force evaluations = 25 29

MPI task timing breakdown:
Section |  min time  |  avg time  |  max time  |%varavg| %total
---------------------------------------------------------------
Pair    | 5.722e-06  | 9.8944e-06 | 1.4067e-05 |   0.1 |  0.06
Kspace  | 0.0079463  | 0.011866   | 0.015786   |   3.6 | 73.83
Neigh   | 9.5367e-07 | 1.9073e-06 | 2.861e-06  |   0.1 |  0.01
Comm    | 5.4359e-05 | 6.2823e-05 | 7.1287e-05 |   0.1 |  0.39
Output  | 0          | 0          | 0          |   0.0 |  0.00
Modify  | 4.53e-06   | 6.4373e-06 | 8.3447e-06 |   0.1 |  0.04
Other   |            | 0.004126   |            |       | 25.67

Nlocal:    1.5 ave 3 max 0 min
Histogram: 1 0 0 0 0 0 0 0 0 1
Nghost:    1.5 ave 3 max 0 min
Histogram: 1 0 0 0 0 0 0 0 0 1
Neighs:    1.5 ave 3 max 0 min
Histogram: 1 0 0 0 0 0 0 0 0 1

Total # of neighbors = 3
Ave neighs/atom = 1
Neighbor list builds = 4
Dangerous builds = 0
  triclinic box = (-25 -25 -25) to (25 25 25) with tilt (0 0 0)
  3 atoms before read
  3 atoms in snapshot
  0 atoms purged
  3 atoms replaced
  0 atoms trimmed
  0 atoms added
  3 atoms after read
WARNING: Resetting reneighboring criteria during minimization (../min.cpp:168)
Ewald initialization ...
  G vector (1/distance) = 0.301603
  estimated absolute RMS force accuracy = 1.61219e-05
  estimated relative force accuracy = 1.11961e-06
  KSpace vectors: actual max1d max3d = 7073 15 14895
                  kxmax kymax kzmax  = 15 15 15
Memory usage per processor = 6.68765 Mbytes
Step Temp E_pair E_mol TotEng Press 
      37    20267.431   -14.955147            0   -9.7156044   -19.689628 
      50    20267.431   -18.195907            0   -12.956365   -36.907342 
      69    20267.431   -30.527911            0   -25.288369    29.771681 
Loop time of 0.019788 on 2 procs for 32 steps with 3 atoms

101.1% CPU use with 2 MPI tasks x no OpenMP threads

Minimization stats:
  Stopping criterion = force tolerance
  Energy initial, next-to-last, final = 
        -14.9551466191     -30.5279110316     -30.5279110311
  Force two-norm initial, final = 1.11953 6.25173e-10
  Force max component initial, final = 1.11953 6.25173e-10
  Final line search alpha, max atom move = 1 6.25173e-10
  Iterations, force evaluations = 32 36

MPI task timing breakdown:
Section |  min time  |  avg time  |  max time  |%varavg| %total
---------------------------------------------------------------
Pair    | 6.4373e-06 | 1.7643e-05 | 2.8849e-05 |   0.3 |  0.09
Kspace  | 0.0097575  | 0.014586   | 0.019414   |   4.0 | 73.71
Neigh   | 0          | 1.0729e-06 | 2.1458e-06 |   0.1 |  0.01
Comm    | 6.3181e-05 | 7.093e-05  | 7.8678e-05 |   0.1 |  0.36
Output  | 1.3113e-05 | 1.514e-05  | 1.7166e-05 |   0.1 |  0.08
Modify  | 7.8678e-06 | 8.3447e-06 | 8.8215e-06 |   0.0 |  0.04
Other   |            | 0.005089   |            |       | 25.72

Nlocal:    1.5 ave 3 max 0 min
Histogram: 1 0 0 0 0 0 0 0 0 1
Nghost:    1.5 ave 3 max 0 min
Histogram: 1 0 0 0 0 0 0 0 0 1
Neighs:    1.5 ave 3 max 0 min
Histogram: 1 0 0 0 0 0 0 0 0 1

Total # of neighbors = 3
Ave neighs/atom = 1
Neighbor list builds = 5
Dangerous builds = 0
  triclinic box = (-25 -25 -25) to (25 25 25) with tilt (0 0 0)
  3 atoms before read
  3 atoms in snapshot
  0 atoms purged
  3 atoms replaced
  0 atoms trimmed
  0 atoms added
  3 atoms after read
WARNING: Resetting reneighboring criteria during minimization (../min.cpp:168)
Ewald initialization ...
  G vector (1/distance) = 0.301603
  estimated absolute RMS force accuracy = 1.61219e-05
  estimated relative force accuracy = 1.11961e-06
  KSpace vectors: actual max1d max3d = 7073 15 14895
                  kxmax kymax kzmax  = 15 15 15
Memory usage per processor = 6.68765 Mbytes
Step Temp E_pair E_mol TotEng Press 
      43    20267.431   -14.651143            0   -9.4116013   -18.231259 
      50    20267.431   -15.433027            0   -10.193485   -22.034223 
      77    20267.431   -30.527911            0   -25.288369    29.771681 
Loop time of 0.0202944 on 2 procs for 34 steps with 3 atoms

96.1% CPU use with 2 MPI tasks x no OpenMP threads

Minimization stats:
  Stopping criterion = force tolerance
  Energy initial, next-to-last, final = 
        -14.6511434385     -30.5279110312     -30.5279110311
  Force two-norm initial, final = 0.579674 1.02166e-10
  Force max component initial, final = 0.579674 1.02166e-10
  Final line search alpha, max atom move = 1 1.02166e-10
  Iterations, force evaluations = 34 37

MPI task timing breakdown:
Section |  min time  |  avg time  |  max time  |%varavg| %total
---------------------------------------------------------------
Pair    | 5.2452e-06 | 1.812e-05  | 3.0994e-05 |   0.3 |  0.09
Kspace  | 0.0099995  | 0.014955   | 0.01991    |   4.1 | 73.69
Neigh   | 1.1921e-06 | 1.6689e-06 | 2.1458e-06 |   0.0 |  0.01
Comm    | 6.8188e-05 | 7.3552e-05 | 7.8917e-05 |   0.1 |  0.36
Output  | 1.1921e-05 | 1.3947e-05 | 1.5974e-05 |   0.1 |  0.07
Modify  | 8.5831e-06 | 9.8944e-06 | 1.1206e-05 |   0.0 |  0.05
Other   |            | 0.005222   |            |       | 25.73

Nlocal:    1.5 ave 3 max 0 min
Histogram: 1 0 0 0 0 0 0 0 0 1
Nghost:    1.5 ave 3 max 0 min
Histogram: 1 0 0 0 0 0 0 0 0 1
Neighs:    1.5 ave 3 max 0 min
Histogram: 1 0 0 0 0 0 0 0 0 1

Total # of neighbors = 3
Ave neighs/atom = 1
Neighbor list builds = 6
Dangerous builds = 0
  triclinic box = (-25 -25 -25) to (25 25 25) with tilt (0 0 0)
  3 atoms before read
  3 atoms in snapshot
  0 atoms purged
  3 atoms replaced
  0 atoms trimmed
  0 atoms added
  3 atoms after read
WARNING: Resetting reneighboring criteria during minimization (../min.cpp:168)
Ewald initialization ...
  G vector (1/distance) = 0.301603
  estimated absolute RMS force accuracy = 1.61219e-05
  estimated relative force accuracy = 1.11961e-06
  KSpace vectors: actual max1d max3d = 7073 15 14895
                  kxmax kymax kzmax  = 15 15 15
Memory usage per processor = 6.68765 Mbytes
Step Temp E_pair E_mol TotEng Press 
      46    20267.431   -14.569593            0   -9.3300509   -17.844149 
      50    20267.431   -14.813769            0   -9.5742269   -19.008344 
      82    20267.431   -30.527911            0   -25.288369    29.771681 
Loop time of 0.0214179 on 2 procs for 36 steps with 3 atoms

102.7% CPU use with 2 MPI tasks x no OpenMP threads

Minimization stats:
  Stopping criterion = force tolerance
  Energy initial, next-to-last, final = 
        -14.5695930481     -30.5279110315     -30.5279110311
  Force two-norm initial, final = 0.32776 1.35886e-08
  Force max component initial, final = 0.32776 1.35886e-08
  Final line search alpha, max atom move = 1 1.35886e-08
  Iterations, force evaluations = 36 39

MPI task timing breakdown:
Section |  min time  |  avg time  |  max time  |%varavg| %total
---------------------------------------------------------------
Pair    | 6.6757e-06 | 1.657e-05  | 2.6464e-05 |   0.2 |  0.08
Kspace  | 0.010578   | 0.015793   | 0.021007   |   4.1 | 73.74
Neigh   | 1.1921e-06 | 1.7881e-06 | 2.3842e-06 |   0.0 |  0.01
Comm    | 6.6757e-05 | 8.1062e-05 | 9.5367e-05 |   0.2 |  0.38
Output  | 1.0967e-05 | 1.2994e-05 | 1.502e-05  |   0.1 |  0.06
Modify  | 7.8678e-06 | 9.2983e-06 | 1.0729e-05 |   0.0 |  0.04
Other   |            | 0.005504   |            |       | 25.70

Nlocal:    1.5 ave 3 max 0 min
Histogram: 1 0 0 0 0 0 0 0 0 1
Nghost:    1.5 ave 3 max 0 min
Histogram: 1 0 0 0 0 0 0 0 0 1
Neighs:    1.5 ave 3 max 0 min
Histogram: 1 0 0 0 0 0 0 0 0 1

Total # of neighbors = 3
Ave neighs/atom = 1
Neighbor list builds = 6
Dangerous builds = 0
  triclinic box = (-25 -25 -25) to (25 25 25) with tilt (0 0 0)
  3 atoms before read
  3 atoms in snapshot
  0 atoms purged
  3 atoms replaced
  0 atoms trimmed
  0 atoms added
  3 atoms after read
WARNING: Resetting reneighboring criteria during minimization (../min.cpp:168)
Ewald initialization ...
  G vector (1/distance) = 0.301603
  estimated absolute RMS force accuracy = 1.61219e-05
  estimated relative force accuracy = 1.11961e-06
  KSpace vectors: actual max1d max3d = 7073 15 14895
                  kxmax kymax kzmax  = 15 15 15
Memory usage per processor = 6.68765 Mbytes
Step Temp E_pair E_mol TotEng Press 
      48    20267.431   -14.540151            0   -9.3006087   -17.704801 
      50    20267.431   -14.600245            0   -9.3607029   -17.989456 
      85    20267.431   -30.527911            0   -25.288369    29.771681 
Loop time of 0.0219581 on 2 procs for 37 steps with 3 atoms

100.2% CPU use with 2 MPI tasks x no OpenMP threads

Minimization stats:
  Stopping criterion = force tolerance
  Energy initial, next-to-last, final = 
        -14.5401509322     -30.5279110312     -30.5279110311
  Force two-norm initial, final = 0.163255 1.02125e-10
  Force max component initial, final = 0.163255 1.02125e-10
  Final line search alpha, max atom move = 1 1.02125e-10
  Iterations, force evaluations = 37 40

MPI task timing breakdown:
Section |  min time  |  avg time  |  max time  |%varavg| %total
---------------------------------------------------------------
Pair    | 6.6757e-06 | 1.9073e-05 | 3.1471e-05 |   0.3 |  0.09
Kspace  | 0.010852   | 0.016196   | 0.021541   |   4.2 | 73.76
Neigh   | 9.5367e-07 | 1.5497e-06 | 2.1458e-06 |   0.0 |  0.01
Comm    | 7.2718e-05 | 8.7619e-05 | 0.00010252 |   0.2 |  0.40
Output  | 1.1921e-05 | 1.3947e-05 | 1.5974e-05 |   0.1 |  0.06
Modify  | 5.722e-06  | 6.7949e-06 | 7.8678e-06 |   0.0 |  0.03
Other   |            | 0.005633   |            |       | 25.65

Nlocal:    1.5 ave 3 max 0 min
Histogram: 1 0 0 0 0 0 0 0 0 1
Nghost:    1.5 ave 3 max 0 min
Histogram: 1 0 0 0 0 0 0 0 0 1
Neighs:    1.5 ave 3 max 0 min
Histogram: 1 0 0 0 0 0 0 0 0 1

Total # of neighbors = 3
Ave neighs/atom = 1
Neighbor list builds = 6
Dangerous builds = 0
  triclinic box = (-25 -25 -25) to (25 25 25) with tilt (0 0 0)
  3 atoms before read
  3 atoms in snapshot
  0 atoms purged
  3 atoms replaced
  0 atoms trimmed
  0 atoms added
  3 atoms after read
WARNING: Resetting reneighboring criteria during minimization (../min.cpp:168)
Ewald initialization ...
  G vector (1/distance) = 0.301603
  estimated absolute RMS force accuracy = 1.61219e-05
  estimated relative force accuracy = 1.11961e-06
  KSpace vectors: actual max1d max3d = 7073 15 14895
                  kxmax kymax kzmax  = 15 15 15
Memory usage per processor = 6.68765 Mbytes
Step Temp E_pair E_mol TotEng Press 
      49    20267.431   -14.532808            0   -9.2932659   -17.670082 
      50    20267.431   -14.543986            0   -9.3044439   -17.722941 
      87    20267.431   -30.527911            0   -25.288369    29.771681 
Loop time of 0.022496 on 2 procs for 38 steps with 3 atoms

97.8% CPU use with 2 MPI tasks x no OpenMP threads

Minimization stats:
  Stopping criterion = force tolerance
  Energy initial, next-to-last, final = 
        -14.5328081138     -30.5279110308     -30.5279110311
  Force two-norm initial, final = 0.0815495 9.16881e-09
  Force max component initial, final = 0.0815495 9.16881e-09
  Final line search alpha, max atom move = 1 9.16881e-09
  Iterations, force evaluations = 38 41

MPI task timing breakdown:
Section |  min time  |  avg time  |  max time  |%varavg| %total
---------------------------------------------------------------
Pair    | 6.9141e-06 | 1.5736e-05 | 2.4557e-05 |   0.2 |  0.07
Kspace  | 0.011116   | 0.016595   | 0.022074   |   4.3 | 73.77
Neigh   | 9.5367e-07 | 1.0729e-06 | 1.1921e-06 |   0.0 |  0.00
Comm    | 7.3433e-05 | 8.4877e-05 | 9.6321e-05 |   0.1 |  0.38
Output  | 9.0599e-06 | 1.0014e-05 | 1.0967e-05 |   0.0 |  0.04
Modify  | 9.7752e-06 | 1.1802e-05 | 1.3828e-05 |   0.1 |  0.05
Other   |            | 0.005777   |            |       | 25.68

Nlocal:    1.5 ave 3 max 0 min
Histogram: 1 0 0 0 0 0 0 0 0 1
Nghost:    1.5 ave 3 max 0 min
Histogram: 1 0 0 0 0 0 0 0 0 1
Neighs:    1.5 ave 3 max 0 min
Histogram: 1 0 0 0 0 0 0 0 0 1

Total # of neighbors = 3
Ave neighs/atom = 1
Neighbor list builds = 6
Dangerous builds = 0
ridge 100 4 0.02 15e-3
WARNING: Resetting reneighboring criteria during minimization (../min.cpp:168)
Ewald initialization ...
  G vector (1/distance) = 0.301603
  estimated absolute RMS force accuracy = 1.61219e-05
  estimated relative force accuracy = 1.11961e-06
  KSpace vectors: actual max1d max3d = 7073 15 14895
                  kxmax kymax kzmax  = 15 15 15
Memory usage per processor = 7.81272 Mbytes
Step Temp E_pair E_mol TotEng Press 
      87    20267.431   -14.532808            0   -9.2932659   -17.670082 
     100    20267.431   -15.860238            0   -10.620696   -24.187983 
     125    20267.431   -30.527911            0   -25.288369    29.771681 
Loop time of 0.0225379 on 2 procs for 38 steps with 3 atoms

99.8% CPU use with 2 MPI tasks x no OpenMP threads

Minimization stats:
  Stopping criterion = force tolerance
  Energy initial, next-to-last, final = 
        -14.5328081138     -30.5279110308     -30.5279110311
  Force two-norm initial, final = 0.0815495 9.16881e-09
  Force max component initial, final = 0.0815495 9.16881e-09
  Final line search alpha, max atom move = 1 9.16881e-09
  Iterations, force evaluations = 38 41

MPI task timing breakdown:
Section |  min time  |  avg time  |  max time  |%varavg| %total
---------------------------------------------------------------
Pair    | 8.8215e-06 | 1.6332e-05 | 2.3842e-05 |   0.2 |  0.07
Kspace  | 0.011156   | 0.016634   | 0.022111   |   4.2 | 73.80
Neigh   | 1.9073e-06 | 2.9802e-06 | 4.0531e-06 |   0.1 |  0.01
Comm    | 7.0095e-05 | 8.4758e-05 | 9.9421e-05 |   0.2 |  0.38
Output  | 1.0967e-05 | 1.2994e-05 | 1.502e-05  |   0.1 |  0.06
Modify  | 7.1526e-06 | 9.8944e-06 | 1.2636e-05 |   0.1 |  0.04
Other   |            | 0.005777   |            |       | 25.63

Nlocal:    1.5 ave 3 max 0 min
Histogram: 1 0 0 0 0 0 0 0 0 1
Nghost:    1.5 ave 3 max 0 min
Histogram: 1 0 0 0 0 0 0 0 0 1
Neighs:    1.5 ave 3 max 0 min
Histogram: 1 0 0 0 0 0 0 0 0 1

Total # of neighbors = 3
Ave neighs/atom = 1
Neighbor list builds = 6
Dangerous builds = 0
WARNING: Resetting reneighboring criteria during minimization (../min.cpp:168)
Ewald initialization ...
  G vector (1/distance) = 0.301603
  estimated absolute RMS force accuracy = 1.61219e-05
  estimated relative force accuracy = 1.11961e-06
  KSpace vectors: actual max1d max3d = 7073 15 14895
                  kxmax kymax kzmax  = 15 15 15
Memory usage per processor = 7.81272 Mbytes
Step Temp E_pair E_mol TotEng Press 
     125    20267.431   -24.891646            0   -19.652104   -66.782116 
     135    20267.431   -30.527911            0   -25.288369    29.771681 
Loop time of 0.00808597 on 2 procs for 10 steps with 3 atoms

98.9% CPU use with 2 MPI tasks x no OpenMP threads

Minimization stats:
  Stopping criterion = force tolerance
  Energy initial, next-to-last, final = 
        -24.8916460866      -30.527911031     -30.5279110311
  Force two-norm initial, final = 10.855 3.66811e-10
  Force max component initial, final = 10.855 3.66811e-10
  Final line search alpha, max atom move = 1 3.66811e-10
  Iterations, force evaluations = 10 14

MPI task timing breakdown:
Section |  min time  |  avg time  |  max time  |%varavg| %total
---------------------------------------------------------------
Pair    | 2.861e-06  | 6.7949e-06 | 1.0729e-05 |   0.2 |  0.08
Kspace  | 0.0040276  | 0.0059807  | 0.0079339  |   2.5 | 73.96
Neigh   | 0          | 0          | 0          |   0.0 |  0.00
Comm    | 2.5749e-05 | 2.9087e-05 | 3.2425e-05 |   0.1 |  0.36
Output  | 0          | 0          | 0          |   0.0 |  0.00
Modify  | 1.9073e-06 | 2.3842e-06 | 2.861e-06  |   0.0 |  0.03
Other   |            | 0.002067   |            |       | 25.56

Nlocal:    1.5 ave 3 max 0 min
Histogram: 1 0 0 0 0 0 0 0 0 1
Nghost:    1.5 ave 3 max 0 min
Histogram: 1 0 0 0 0 0 0 0 0 1
Neighs:    1.5 ave 3 max 0 min
Histogram: 1 0 0 0 0 0 0 0 0 1

Total # of neighbors = 3
Ave neighs/atom = 1
Neighbor list builds = 1
Dangerous builds = 0
WARNING: Resetting reneighboring criteria during minimization (../min.cpp:168)
Ewald initialization ...
  G vector (1/distance) = 0.301603
  estimated absolute RMS force accuracy = 1.61219e-05
  estimated relative force accuracy = 1.11961e-06
  KSpace vectors: actual max1d max3d = 7073 15 14895
                  kxmax kymax kzmax  = 15 15 15
Memory usage per processor = 7.81272 Mbytes
Step Temp E_pair E_mol TotEng Press 
     135    20267.431   -16.156246            0   -10.916704   -25.713499 
Loop time of 2.14577e-06 on 2 procs for 0 steps with 3 atoms

0.0% CPU use with 2 MPI tasks x no OpenMP threads

Minimization stats:
  Stopping criterion = max iterations
  Energy initial, next-to-last, final = 
        -16.1562457578      -30.527911031     -16.1562457578
  Force two-norm initial, final = 2.45453 2.45453
  Force max component initial, final = 2.45453 2.45453
  Final line search alpha, max atom move = 1 2.45453
  Iterations, force evaluations = 0 0

MPI task timing breakdown:
Section |  min time  |  avg time  |  max time  |%varavg| %total
---------------------------------------------------------------
Pair    | 0          | 0          | 0          |   0.0 |  0.00
Kspace  | 0          | 0          | 0          |   0.0 |  0.00
Neigh   | 0          | 0          | 0          |   0.0 |  0.00
Comm    | 0          | 0          | 0          |   0.0 |  0.00
Output  | 0          | 0          | 0          |   0.0 |  0.00
Modify  | 0          | 0          | 0          |   0.0 |  0.00
Other   |            | 2.146e-06  |            |       |100.00

Nlocal:    1.5 ave 3 max 0 min
Histogram: 1 0 0 0 0 0 0 0 0 1
Nghost:    1.5 ave 3 max 0 min
Histogram: 1 0 0 0 0 0 0 0 0 1
Neighs:    1.5 ave 3 max 0 min
Histogram: 1 0 0 0 0 0 0 0 0 1

Total # of neighbors = 3
Ave neighs/atom = 1
Neighbor list builds = 0
Dangerous builds = 0
WARNING: Resetting reneighboring criteria during minimization (../min.cpp:168)
Ewald initialization ...
  G vector (1/distance) = 0.301603
  estimated absolute RMS force accuracy = 1.61219e-05
  estimated relative force accuracy = 1.11961e-06
  KSpace vectors: actual max1d max3d = 7073 15 14895
                  kxmax kymax kzmax  = 15 15 15
Memory usage per processor = 7.81272 Mbytes
Step Temp E_pair E_mol TotEng Press 
     135    20267.431   -16.156246            0   -10.916704   -25.713499 
Loop time of 1.90735e-06 on 2 procs for 0 steps with 3 atoms

0.0% CPU use with 2 MPI tasks x no OpenMP threads

Minimization stats:
  Stopping criterion = max iterations
  Energy initial, next-to-last, final = 
        -16.1562457578      -30.527911031     -16.1562457578
  Force two-norm initial, final = 2.45453 2.45453
  Force max component initial, final = 2.45453 2.45453
  Final line search alpha, max atom move = 1 2.45453
  Iterations, force evaluations = 0 0

MPI task timing breakdown:
Section |  min time  |  avg time  |  max time  |%varavg| %total
---------------------------------------------------------------
Pair    | 0          | 0          | 0          |   0.0 |  0.00
Kspace  | 0          | 0          | 0          |   0.0 |  0.00
Neigh   | 0          | 0          | 0          |   0.0 |  0.00
Comm    | 0          | 0          | 0          |   0.0 |  0.00
Output  | 0          | 0          | 0          |   0.0 |  0.00
Modify  | 0          | 0          | 0          |   0.0 |  0.00
Other   |            | 1.907e-06  |            |       |100.00

Nlocal:    1.5 ave 3 max 0 min
Histogram: 1 0 0 0 0 0 0 0 0 1
Nghost:    1.5 ave 3 max 0 min
Histogram: 1 0 0 0 0 0 0 0 0 1
Neighs:    1.5 ave 3 max 0 min
Histogram: 1 0 0 0 0 0 0 0 0 1

Total # of neighbors = 3
Ave neighs/atom = 1
Neighbor list builds = 0
Dangerous builds = 0
WARNING: Resetting reneighboring criteria during minimization (../min.cpp:168)
Ewald initialization ...
  G vector (1/distance) = 0.301603
  estimated absolute RMS force accuracy = 1.61219e-05
  estimated relative force accuracy = 1.11961e-06
  KSpace vectors: actual max1d max3d = 7073 15 14895
                  kxmax kymax kzmax  = 15 15 15
Memory usage per processor = 7.81272 Mbytes
Step Temp E_pair E_mol TotEng Press 
     135    20267.431   -16.156246            0   -10.916704   -25.713499 
     150    20267.431   -24.569424            0   -19.329882   -66.381749 
     159    20267.431   -30.527911            0   -25.288369    29.771684 
Loop time of 0.0150657 on 2 procs for 24 steps with 3 atoms

99.5% CPU use with 2 MPI tasks x no OpenMP threads

Minimization stats:
  Stopping criterion = force tolerance
  Energy initial, next-to-last, final = 
        -16.1562457578      -30.527911017     -30.5279110312
  Force two-norm initial, final = 2.45453 5.2087e-07
  Force max component initial, final = 2.45453 5.2087e-07
  Final line search alpha, max atom move = 1 5.2087e-07
  Iterations, force evaluations = 24 27

MPI task timing breakdown:
Section |  min time  |  avg time  |  max time  |%varavg| %total
---------------------------------------------------------------
Pair    | 7.8678e-06 | 1.0967e-05 | 1.4067e-05 |   0.1 |  0.07
Kspace  | 0.0074549  | 0.011111   | 0.014767   |   3.5 | 73.75
Neigh   | 1.9073e-06 | 1.9073e-06 | 1.9073e-06 |   0.0 |  0.01
Comm    | 4.9591e-05 | 5.9485e-05 | 6.938e-05  |   0.1 |  0.39
Output  | 1.1921e-05 | 1.3947e-05 | 1.5974e-05 |   0.1 |  0.09
Modify  | 5.2452e-06 | 6.5565e-06 | 7.8678e-06 |   0.1 |  0.04
Other   |            | 0.003862   |            |       | 25.63

Nlocal:    1.5 ave 3 max 0 min
Histogram: 1 0 0 0 0 0 0 0 0 1
Nghost:    1.5 ave 3 max 0 min
Histogram: 1 0 0 0 0 0 0 0 0 1
Neighs:    1.5 ave 3 max 0 min
Histogram: 1 0 0 0 0 0 0 0 0 1

Total # of neighbors = 3
Ave neighs/atom = 1
Neighbor list builds = 4
Dangerous builds = 0
WARNING: Resetting reneighboring criteria during minimization (../min.cpp:168)
Ewald initialization ...
  G vector (1/distance) = 0.301603
  estimated absolute RMS force accuracy = 1.61219e-05
  estimated relative force accuracy = 1.11961e-06
  KSpace vectors: actual max1d max3d = 7073 15 14895
                  kxmax kymax kzmax  = 15 15 15
Memory usage per processor = 7.81272 Mbytes
Step Temp E_pair E_mol TotEng Press 
     159    20267.431   -14.875626            0    -9.636084   -19.305766 
Loop time of 1.90735e-06 on 2 procs for 0 steps with 3 atoms

0.0% CPU use with 2 MPI tasks x no OpenMP threads

Minimization stats:
  Stopping criterion = max iterations
  Energy initial, next-to-last, final = 
        -14.8756261741      -30.527911017     -14.8756261741
  Force two-norm initial, final = 1.00161 1.00161
  Force max component initial, final = 1.00161 1.00161
  Final line search alpha, max atom move = 1 1.00161
  Iterations, force evaluations = 0 0

MPI task timing breakdown:
Section |  min time  |  avg time  |  max time  |%varavg| %total
---------------------------------------------------------------
Pair    | 0          | 0          | 0          |   0.0 |  0.00
Kspace  | 0          | 0          | 0          |   0.0 |  0.00
Neigh   | 0          | 0          | 0          |   0.0 |  0.00
Comm    | 0          | 0          | 0          |   0.0 |  0.00
Output  | 0          | 0          | 0          |   0.0 |  0.00
Modify  | 0          | 0          | 0          |   0.0 |  0.00
Other   |            | 1.907e-06  |            |       |100.00

Nlocal:    1.5 ave 3 max 0 min
Histogram: 1 0 0 0 0 0 0 0 0 1
Nghost:    1.5 ave 3 max 0 min
Histogram: 1 0 0 0 0 0 0 0 0 1
Neighs:    1.5 ave 3 max 0 min
Histogram: 1 0 0 0 0 0 0 0 0 1

Total # of neighbors = 3
Ave neighs/atom = 1
Neighbor list builds = 0
Dangerous builds = 0
WARNING: Resetting reneighboring criteria during minimization (../min.cpp:168)
Ewald initialization ...
  G vector (1/distance) = 0.301603
  estimated absolute RMS force accuracy = 1.61219e-05
  estimated relative force accuracy = 1.11961e-06
  KSpace vectors: actual max1d max3d = 7073 15 14895
                  kxmax kymax kzmax  = 15 15 15
Memory usage per processor = 7.81272 Mbytes
Step Temp E_pair E_mol TotEng Press 
     159    20267.431   -14.875626            0    -9.636084   -19.305766 
Loop time of 1.90735e-06 on 2 procs for 0 steps with 3 atoms

0.0% CPU use with 2 MPI tasks x no OpenMP threads

Minimization stats:
  Stopping criterion = max iterations
  Energy initial, next-to-last, final = 
        -14.8756261741      -30.527911017     -14.8756261741
  Force two-norm initial, final = 1.00161 1.00161
  Force max component initial, final = 1.00161 1.00161
  Final line search alpha, max atom move = 1 1.00161
  Iterations, force evaluations = 0 0

MPI task timing breakdown:
Section |  min time  |  avg time  |  max time  |%varavg| %total
---------------------------------------------------------------
Pair    | 0          | 0          | 0          |   0.0 |  0.00
Kspace  | 0          | 0          | 0          |   0.0 |  0.00
Neigh   | 0          | 0          | 0          |   0.0 |  0.00
Comm    | 0          | 0          | 0          |   0.0 |  0.00
Output  | 0          | 0          | 0          |   0.0 |  0.00
Modify  | 0          | 0          | 0          |   0.0 |  0.00
Other   |            | 1.907e-06  |            |       |100.00

Nlocal:    1.5 ave 3 max 0 min
Histogram: 1 0 0 0 0 0 0 0 0 1
Nghost:    1.5 ave 3 max 0 min
Histogram: 1 0 0 0 0 0 0 0 0 1
Neighs:    1.5 ave 3 max 0 min
Histogram: 1 0 0 0 0 0 0 0 0 1

Total # of neighbors = 3
Ave neighs/atom = 1
Neighbor list builds = 0
Dangerous builds = 0
WARNING: Resetting reneighboring criteria during minimization (../min.cpp:168)
Ewald initialization ...
  G vector (1/distance) = 0.301603
  estimated absolute RMS force accuracy = 1.61219e-05
  estimated relative force accuracy = 1.11961e-06
  KSpace vectors: actual max1d max3d = 7073 15 14895
                  kxmax kymax kzmax  = 15 15 15
Memory usage per processor = 7.81272 Mbytes
Step Temp E_pair E_mol TotEng Press 
     159    20267.431   -14.875626            0    -9.636084   -19.305766 
     192    20267.431   -30.527911            0   -25.288369    29.771681 
Loop time of 0.020329 on 2 procs for 33 steps with 3 atoms

100.8% CPU use with 2 MPI tasks x no OpenMP threads

Minimization stats:
  Stopping criterion = force tolerance
  Energy initial, next-to-last, final = 
        -14.8756261741     -30.5279110318     -30.5279110311
  Force two-norm initial, final = 1.00161 8.62504e-10
  Force max component initial, final = 1.00161 8.62504e-10
  Final line search alpha, max atom move = 1 8.62504e-10
  Iterations, force evaluations = 33 37

MPI task timing breakdown:
Section |  min time  |  avg time  |  max time  |%varavg| %total
---------------------------------------------------------------
Pair    | 8.1062e-06 | 1.6451e-05 | 2.4796e-05 |   0.2 |  0.08
Kspace  | 0.010035   | 0.014999   | 0.019963   |   4.1 | 73.78
Neigh   | 9.5367e-07 | 1.4305e-06 | 1.9073e-06 |   0.0 |  0.01
Comm    | 6.4135e-05 | 7.5698e-05 | 8.7261e-05 |   0.1 |  0.37
Output  | 0          | 0          | 0          |   0.0 |  0.00
Modify  | 1.0967e-05 | 1.0967e-05 | 1.0967e-05 |   0.0 |  0.05
Other   |            | 0.005226   |            |       | 25.71

Nlocal:    1.5 ave 3 max 0 min
Histogram: 1 0 0 0 0 0 0 0 0 1
Nghost:    1.5 ave 3 max 0 min
Histogram: 1 0 0 0 0 0 0 0 0 1
Neighs:    1.5 ave 3 max 0 min
Histogram: 1 0 0 0 0 0 0 0 0 1

Total # of neighbors = 3
Ave neighs/atom = 1
Neighbor list builds = 6
Dangerous builds = 0
WARNING: Resetting reneighboring criteria during minimization (../min.cpp:168)
Ewald initialization ...
  G vector (1/distance) = 0.301603
  estimated absolute RMS force accuracy = 1.61219e-05
  estimated relative force accuracy = 1.11961e-06
  KSpace vectors: actual max1d max3d = 7073 15 14895
                  kxmax kymax kzmax  = 15 15 15
Memory usage per processor = 7.81272 Mbytes
Step Temp E_pair E_mol TotEng Press 
     192    20267.431   -14.601346            0   -9.3618043   -17.994683 
Loop time of 2.14577e-06 on 2 procs for 0 steps with 3 atoms

0.0% CPU use with 2 MPI tasks x no OpenMP threads

Minimization stats:
  Stopping criterion = max iterations
  Energy initial, next-to-last, final = 
        -14.6013464411     -30.5279110318     -14.6013464411
  Force two-norm initial, final = 0.442245 0.442245
  Force max component initial, final = 0.442245 0.442245
  Final line search alpha, max atom move = 1 0.442245
  Iterations, force evaluations = 0 0

MPI task timing breakdown:
Section |  min time  |  avg time  |  max time  |%varavg| %total
---------------------------------------------------------------
Pair    | 0          | 0          | 0          |   0.0 |  0.00
Kspace  | 0          | 0          | 0          |   0.0 |  0.00
Neigh   | 0          | 0          | 0          |   0.0 |  0.00
Comm    | 0          | 0          | 0          |   0.0 |  0.00
Output  | 0          | 0          | 0          |   0.0 |  0.00
Modify  | 0          | 0          | 0          |   0.0 |  0.00
Other   |            | 2.146e-06  |            |       |100.00

Nlocal:    1.5 ave 3 max 0 min
Histogram: 1 0 0 0 0 0 0 0 0 1
Nghost:    1.5 ave 3 max 0 min
Histogram: 1 0 0 0 0 0 0 0 0 1
Neighs:    1.5 ave 3 max 0 min
Histogram: 1 0 0 0 0 0 0 0 0 1

Total # of neighbors = 3
Ave neighs/atom = 1
Neighbor list builds = 0
Dangerous builds = 0
WARNING: Resetting reneighboring criteria during minimization (../min.cpp:168)
Ewald initialization ...
  G vector (1/distance) = 0.301603
  estimated absolute RMS force accuracy = 1.61219e-05
  estimated relative force accuracy = 1.11961e-06
  KSpace vectors: actual max1d max3d = 7073 15 14895
                  kxmax kymax kzmax  = 15 15 15
Memory usage per processor = 7.81272 Mbytes
Step Temp E_pair E_mol TotEng Press 
     192    20267.431   -14.601346            0   -9.3618043   -17.994683 
Loop time of 2.14577e-06 on 2 procs for 0 steps with 3 atoms

0.0% CPU use with 2 MPI tasks x no OpenMP threads

Minimization stats:
  Stopping criterion = max iterations
  Energy initial, next-to-last, final = 
        -14.6013464411     -30.5279110318     -14.6013464411
  Force two-norm initial, final = 0.442245 0.442245
  Force max component initial, final = 0.442245 0.442245
  Final line search alpha, max atom move = 1 0.442245
  Iterations, force evaluations = 0 0

MPI task timing breakdown:
Section |  min time  |  avg time  |  max time  |%varavg| %total
---------------------------------------------------------------
Pair    | 0          | 0          | 0          |   0.0 |  0.00
Kspace  | 0          | 0          | 0          |   0.0 |  0.00
Neigh   | 0          | 0          | 0          |   0.0 |  0.00
Comm    | 0          | 0          | 0          |   0.0 |  0.00
Output  | 0          | 0          | 0          |   0.0 |  0.00
Modify  | 0          | 0          | 0          |   0.0 |  0.00
Other   |            | 2.146e-06  |            |       |100.00

Nlocal:    1.5 ave 3 max 0 min
Histogram: 1 0 0 0 0 0 0 0 0 1
Nghost:    1.5 ave 3 max 0 min
Histogram: 1 0 0 0 0 0 0 0 0 1
Neighs:    1.5 ave 3 max 0 min
Histogram: 1 0 0 0 0 0 0 0 0 1

Total # of neighbors = 3
Ave neighs/atom = 1
Neighbor list builds = 0
Dangerous builds = 0
WARNING: Resetting reneighboring criteria during minimization (../min.cpp:168)
Ewald initialization ...
  G vector (1/distance) = 0.301603
  estimated absolute RMS force accuracy = 1.61219e-05
  estimated relative force accuracy = 1.11961e-06
  KSpace vectors: actual max1d max3d = 7073 15 14895
                  kxmax kymax kzmax  = 15 15 15
Memory usage per processor = 7.81272 Mbytes
Step Temp E_pair E_mol TotEng Press 
     192    20267.431   -14.601346            0   -9.3618043   -17.994683 
     200    20267.431   -15.437304            0   -10.197762   -22.055507 
     227    20267.431   -30.527911            0   -25.288369    29.771681 
Loop time of 0.020946 on 2 procs for 35 steps with 3 atoms

100.2% CPU use with 2 MPI tasks x no OpenMP threads

Minimization stats:
  Stopping criterion = force tolerance
  Energy initial, next-to-last, final = 
        -14.6013464411     -30.5279110315     -30.5279110311
  Force two-norm initial, final = 0.442245 2.32028e-10
  Force max component initial, final = 0.442245 2.32028e-10
  Final line search alpha, max atom move = 1 2.32028e-10
  Iterations, force evaluations = 35 38

MPI task timing breakdown:
Section |  min time  |  avg time  |  max time  |%varavg| %total
---------------------------------------------------------------
Pair    | 1.0252e-05 | 1.6451e-05 | 2.265e-05  |   0.2 |  0.08
Kspace  | 0.010327   | 0.015418   | 0.020509   |   4.1 | 73.61
Neigh   | 1.9073e-06 | 2.0266e-06 | 2.1458e-06 |   0.0 |  0.01
Comm    | 6.7711e-05 | 8.3447e-05 | 9.9182e-05 |   0.2 |  0.40
Output  | 1.2159e-05 | 1.359e-05  | 1.502e-05  |   0.0 |  0.06
Modify  | 3.8147e-06 | 4.2915e-06 | 4.7684e-06 |   0.0 |  0.02
Other   |            | 0.005408   |            |       | 25.82

Nlocal:    1.5 ave 3 max 0 min
Histogram: 1 0 0 0 0 0 0 0 0 1
Nghost:    1.5 ave 3 max 0 min
Histogram: 1 0 0 0 0 0 0 0 0 1
Neighs:    1.5 ave 3 max 0 min
Histogram: 1 0 0 0 0 0 0 0 0 1

Total # of neighbors = 3
Ave neighs/atom = 1
Neighbor list builds = 6
Dangerous builds = 0
WARNING: Resetting reneighboring criteria during minimization (../min.cpp:168)
Ewald initialization ...
  G vector (1/distance) = 0.301603
  estimated absolute RMS force accuracy = 1.61219e-05
  estimated relative force accuracy = 1.11961e-06
  KSpace vectors: actual max1d max3d = 7073 15 14895
                  kxmax kymax kzmax  = 15 15 15
Memory usage per processor = 7.81272 Mbytes
Step Temp E_pair E_mol TotEng Press 
     227    20267.431   -14.542074            0   -9.3025322   -17.713902 
Loop time of 1.43051e-06 on 2 procs for 0 steps with 3 atoms

0.0% CPU use with 2 MPI tasks x no OpenMP threads

Minimization stats:
  Stopping criterion = max iterations
  Energy initial, next-to-last, final = 
        -14.5420744313     -30.5279110315     -14.5420744313
  Force two-norm initial, final = 0.178605 0.178605
  Force max component initial, final = 0.178605 0.178605
  Final line search alpha, max atom move = 1 0.178605
  Iterations, force evaluations = 0 0

MPI task timing breakdown:
Section |  min time  |  avg time  |  max time  |%varavg| %total
---------------------------------------------------------------
Pair    | 0          | 0          | 0          |   0.0 |  0.00
Kspace  | 0          | 0          | 0          |   0.0 |  0.00
Neigh   | 0          | 0          | 0          |   0.0 |  0.00
Comm    | 0          | 0          | 0          |   0.0 |  0.00
Output  | 0          | 0          | 0          |   0.0 |  0.00
Modify  | 0          | 0          | 0          |   0.0 |  0.00
Other   |            | 1.431e-06  |            |       |100.00

Nlocal:    1.5 ave 3 max 0 min
Histogram: 1 0 0 0 0 0 0 0 0 1
Nghost:    1.5 ave 3 max 0 min
Histogram: 1 0 0 0 0 0 0 0 0 1
Neighs:    1.5 ave 3 max 0 min
Histogram: 1 0 0 0 0 0 0 0 0 1

Total # of neighbors = 3
Ave neighs/atom = 1
Neighbor list builds = 0
Dangerous builds = 0
WARNING: Resetting reneighboring criteria during minimization (../min.cpp:168)
Ewald initialization ...
  G vector (1/distance) = 0.301603
  estimated absolute RMS force accuracy = 1.61219e-05
  estimated relative force accuracy = 1.11961e-06
  KSpace vectors: actual max1d max3d = 7073 15 14895
                  kxmax kymax kzmax  = 15 15 15
Memory usage per processor = 7.81272 Mbytes
Step Temp E_pair E_mol TotEng Press 
     227    20267.431   -14.542074            0   -9.3025322   -17.713902 
Loop time of 1.90735e-06 on 2 procs for 0 steps with 3 atoms

0.0% CPU use with 2 MPI tasks x no OpenMP threads

Minimization stats:
  Stopping criterion = max iterations
  Energy initial, next-to-last, final = 
        -14.5420744313     -30.5279110315     -14.5420744313
  Force two-norm initial, final = 0.178605 0.178605
  Force max component initial, final = 0.178605 0.178605
  Final line search alpha, max atom move = 1 0.178605
  Iterations, force evaluations = 0 0

MPI task timing breakdown:
Section |  min time  |  avg time  |  max time  |%varavg| %total
---------------------------------------------------------------
Pair    | 0          | 0          | 0          |   0.0 |  0.00
Kspace  | 0          | 0          | 0          |   0.0 |  0.00
Neigh   | 0          | 0          | 0          |   0.0 |  0.00
Comm    | 0          | 0          | 0          |   0.0 |  0.00
Output  | 0          | 0          | 0          |   0.0 |  0.00
Modify  | 0          | 0          | 0          |   0.0 |  0.00
Other   |            | 1.907e-06  |            |       |100.00

Nlocal:    1.5 ave 3 max 0 min
Histogram: 1 0 0 0 0 0 0 0 0 1
Nghost:    1.5 ave 3 max 0 min
Histogram: 1 0 0 0 0 0 0 0 0 1
Neighs:    1.5 ave 3 max 0 min
Histogram: 1 0 0 0 0 0 0 0 0 1

Total # of neighbors = 3
Ave neighs/atom = 1
Neighbor list builds = 0
Dangerous builds = 0
WARNING: Resetting reneighboring criteria during minimization (../min.cpp:168)
Ewald initialization ...
  G vector (1/distance) = 0.301603
  estimated absolute RMS force accuracy = 1.61219e-05
  estimated relative force accuracy = 1.11961e-06
  KSpace vectors: actual max1d max3d = 7073 15 14895
                  kxmax kymax kzmax  = 15 15 15
Memory usage per processor = 7.81272 Mbytes
Step Temp E_pair E_mol TotEng Press 
     227    20267.431   -14.542074            0   -9.3025322   -17.713902 
     250    20267.431   -20.058612            0   -14.819069    -47.61549 
     264    20267.431   -30.527911            0   -25.288369    29.771681 
Loop time of 0.021971 on 2 procs for 37 steps with 3 atoms

100.1% CPU use with 2 MPI tasks x no OpenMP threads

Minimization stats:
  Stopping criterion = force tolerance
  Energy initial, next-to-last, final = 
        -14.5420744313     -30.5279110304     -30.5279110311
  Force two-norm initial, final = 0.178605 2.727e-08
  Force max component initial, final = 0.178605 2.727e-08
  Final line search alpha, max atom move = 1 2.727e-08
  Iterations, force evaluations = 37 40

MPI task timing breakdown:
Section |  min time  |  avg time  |  max time  |%varavg| %total
---------------------------------------------------------------
Pair    | 3.3379e-06 | 1.3113e-05 | 2.2888e-05 |   0.3 |  0.06
Kspace  | 0.010846   | 0.016199   | 0.021552   |   4.2 | 73.73
Neigh   | 1.9073e-06 | 2.5034e-06 | 3.0994e-06 |   0.0 |  0.01
Comm    | 7.1764e-05 | 8.5473e-05 | 9.9182e-05 |   0.1 |  0.39
Output  | 1.0967e-05 | 1.2994e-05 | 1.502e-05  |   0.1 |  0.06
Modify  | 5.0068e-06 | 7.987e-06  | 1.0967e-05 |   0.1 |  0.04
Other   |            | 0.00565    |            |       | 25.72

Nlocal:    1.5 ave 3 max 0 min
Histogram: 1 0 0 0 0 0 0 0 0 1
Nghost:    1.5 ave 3 max 0 min
Histogram: 1 0 0 0 0 0 0 0 0 1
Neighs:    1.5 ave 3 max 0 min
Histogram: 1 0 0 0 0 0 0 0 0 1

Total # of neighbors = 3
Ave neighs/atom = 1
Neighbor list builds = 6
Dangerous builds = 0
WARNING: Resetting reneighboring criteria during minimization (../min.cpp:168)
Ewald initialization ...
  G vector (1/distance) = 0.301603
  estimated absolute RMS force accuracy = 1.61219e-05
  estimated relative force accuracy = 1.11961e-06
  KSpace vectors: actual max1d max3d = 7073 15 14895
                  kxmax kymax kzmax  = 15 15 15
Memory usage per processor = 7.81272 Mbytes
Step Temp E_pair E_mol TotEng Press 
     264    20267.431   -14.532808            0   -9.2932659   -17.670082 
     270    20267.431   -14.815168            0   -9.5756259   -19.015057 
Loop time of 0.00324488 on 2 procs for 6 steps with 3 atoms

92.4% CPU use with 2 MPI tasks x no OpenMP threads

Minimization stats:
  Stopping criterion = max iterations
  Energy initial, next-to-last, final = 
        -14.5328081138     -14.7322215537     -14.8151681168
  Force two-norm initial, final = 0.0815495 0.904399
  Force max component initial, final = 0.0815495 0.904399
  Final line search alpha, max atom move = 0.132396 0.119739
  Iterations, force evaluations = 6 6

MPI task timing breakdown:
Section |  min time  |  avg time  |  max time  |%varavg| %total
---------------------------------------------------------------
Pair    | 2.3842e-06 | 3.3379e-06 | 4.2915e-06 |   0.1 |  0.10
Kspace  | 0.0016026  | 0.0023848  | 0.0031669  |   1.6 | 73.49
Neigh   | 9.5367e-07 | 9.5367e-07 | 9.5367e-07 |   0.0 |  0.03
Comm    | 1.359e-05  | 1.3828e-05 | 1.4067e-05 |   0.0 |  0.43
Output  | 1.0967e-05 | 1.2994e-05 | 1.502e-05  |   0.1 |  0.40
Modify  | 9.5367e-07 | 1.4305e-06 | 1.9073e-06 |   0.0 |  0.04
Other   |            | 0.0008276  |            |       | 25.50

Nlocal:    1.5 ave 3 max 0 min
Histogram: 1 0 0 0 0 0 0 0 0 1
Nghost:    1.5 ave 3 max 0 min
Histogram: 1 0 0 0 0 0 0 0 0 1
Neighs:    1.5 ave 3 max 0 min
Histogram: 1 0 0 0 0 0 0 0 0 1

Total # of neighbors = 3
Ave neighs/atom = 1
Neighbor list builds = 1
Dangerous builds = 0
WARNING: Resetting reneighboring criteria during minimization (../min.cpp:168)
Ewald initialization ...
  G vector (1/distance) = 0.301603
  estimated absolute RMS force accuracy = 1.61219e-05
  estimated relative force accuracy = 1.11961e-06
  KSpace vectors: actual max1d max3d = 7073 15 14895
                  kxmax kymax kzmax  = 15 15 15
Memory usage per processor = 7.81272 Mbytes
Step Temp E_pair E_mol TotEng Press 
     270    20267.431   -14.542074            0   -9.3025322   -17.713902 
     276    20267.431   -14.902453            0    -9.662911   -19.435069 
Loop time of 0.00325704 on 2 procs for 6 steps with 3 atoms

76.7% CPU use with 2 MPI tasks x no OpenMP threads

Minimization stats:
  Stopping criterion = max iterations
  Energy initial, next-to-last, final = 
        -14.5420744313     -14.8059341354     -14.9024532086
  Force two-norm initial, final = 0.178605 1.04249
  Force max component initial, final = 0.178605 1.04249
  Final line search alpha, max atom move = 0.112508 0.117288
  Iterations, force evaluations = 6 6

MPI task timing breakdown:
Section |  min time  |  avg time  |  max time  |%varavg| %total
---------------------------------------------------------------
Pair    | 1.9073e-06 | 2.9802e-06 | 4.0531e-06 |   0.1 |  0.09
Kspace  | 0.0016081  | 0.0023936  | 0.0031791  |   1.6 | 73.49
Neigh   | 0          | 4.7684e-07 | 9.5367e-07 |   0.1 |  0.01
Comm    | 1.2636e-05 | 1.6212e-05 | 1.9789e-05 |   0.1 |  0.50
Output  | 1.0014e-05 | 1.204e-05  | 1.4067e-05 |   0.1 |  0.37
Modify  | 9.5367e-07 | 1.9073e-06 | 2.861e-06  |   0.1 |  0.06
Other   |            | 0.0008298  |            |       | 25.48

Nlocal:    1.5 ave 3 max 0 min
Histogram: 1 0 0 0 0 0 0 0 0 1
Nghost:    1.5 ave 3 max 0 min
Histogram: 1 0 0 0 0 0 0 0 0 1
Neighs:    1.5 ave 3 max 0 min
Histogram: 1 0 0 0 0 0 0 0 0 1

Total # of neighbors = 3
Ave neighs/atom = 1
Neighbor list builds = 1
Dangerous builds = 0
WARNING: Resetting reneighboring criteria during minimization (../min.cpp:168)
Ewald initialization ...
  G vector (1/distance) = 0.301603
  estimated absolute RMS force accuracy = 1.61219e-05
  estimated relative force accuracy = 1.11961e-06
  KSpace vectors: actual max1d max3d = 7073 15 14895
                  kxmax kymax kzmax  = 15 15 15
Memory usage per processor = 7.81272 Mbytes
Step Temp E_pair E_mol TotEng Press 
     276    20267.431   -14.531729            0   -9.2921869   -17.664985 
Loop time of 1.90735e-06 on 2 procs for 0 steps with 3 atoms

0.0% CPU use with 2 MPI tasks x no OpenMP threads

Minimization stats:
  Stopping criterion = max iterations
  Energy initial, next-to-last, final = 
        -14.5317291036     -14.8059341354     -14.5317291036
  Force two-norm initial, final = 0.06095 0.06095
  Force max component initial, final = 0.06095 0.06095
  Final line search alpha, max atom move = 0.112508 0.00685739
  Iterations, force evaluations = 0 0

MPI task timing breakdown:
Section |  min time  |  avg time  |  max time  |%varavg| %total
---------------------------------------------------------------
Pair    | 0          | 0          | 0          |   0.0 |  0.00
Kspace  | 0          | 0          | 0          |   0.0 |  0.00
Neigh   | 0          | 0          | 0          |   0.0 |  0.00
Comm    | 0          | 0          | 0          |   0.0 |  0.00
Output  | 0          | 0          | 0          |   0.0 |  0.00
Modify  | 0          | 0          | 0          |   0.0 |  0.00
Other   |            | 1.907e-06  |            |       |100.00

Nlocal:    1.5 ave 3 max 0 min
Histogram: 1 0 0 0 0 0 0 0 0 1
Nghost:    1.5 ave 3 max 0 min
Histogram: 1 0 0 0 0 0 0 0 0 1
Neighs:    1.5 ave 3 max 0 min
Histogram: 1 0 0 0 0 0 0 0 0 1

Total # of neighbors = 3
Ave neighs/atom = 1
Neighbor list builds = 0
Dangerous builds = 0
WARNING: Resetting reneighboring criteria during minimization (../min.cpp:168)
Ewald initialization ...
  G vector (1/distance) = 0.301603
  estimated absolute RMS force accuracy = 1.61219e-05
  estimated relative force accuracy = 1.11961e-06
  KSpace vectors: actual max1d max3d = 7073 15 14895
                  kxmax kymax kzmax  = 15 15 15
Memory usage per processor = 7.81272 Mbytes
Step Temp E_pair E_mol TotEng Press 
     276    20267.431   -14.531729            0   -9.2921869   -17.664985 
Loop time of 1.90735e-06 on 2 procs for 0 steps with 3 atoms

0.0% CPU use with 2 MPI tasks x no OpenMP threads

Minimization stats:
  Stopping criterion = max iterations
  Energy initial, next-to-last, final = 
        -14.5317291036     -14.8059341354     -14.5317291036
  Force two-norm initial, final = 0.06095 0.06095
  Force max component initial, final = 0.06095 0.06095
  Final line search alpha, max atom move = 0.112508 0.00685739
  Iterations, force evaluations = 0 0

MPI task timing breakdown:
Section |  min time  |  avg time  |  max time  |%varavg| %total
---------------------------------------------------------------
Pair    | 0          | 0          | 0          |   0.0 |  0.00
Kspace  | 0          | 0          | 0          |   0.0 |  0.00
Neigh   | 0          | 0          | 0          |   0.0 |  0.00
Comm    | 0          | 0          | 0          |   0.0 |  0.00
Output  | 0          | 0          | 0          |   0.0 |  0.00
Modify  | 0          | 0          | 0          |   0.0 |  0.00
Other   |            | 1.907e-06  |            |       |100.00

Nlocal:    1.5 ave 3 max 0 min
Histogram: 1 0 0 0 0 0 0 0 0 1
Nghost:    1.5 ave 3 max 0 min
Histogram: 1 0 0 0 0 0 0 0 0 1
Neighs:    1.5 ave 3 max 0 min
Histogram: 1 0 0 0 0 0 0 0 0 1

Total # of neighbors = 3
Ave neighs/atom = 1
Neighbor list builds = 0
Dangerous builds = 0
WARNING: Resetting reneighboring criteria during minimization (../min.cpp:168)
Ewald initialization ...
  G vector (1/distance) = 0.301603
  estimated absolute RMS force accuracy = 1.61219e-05
  estimated relative force accuracy = 1.11961e-06
  KSpace vectors: actual max1d max3d = 7073 15 14895
                  kxmax kymax kzmax  = 15 15 15
Memory usage per processor = 7.81272 Mbytes
Step Temp E_pair E_mol TotEng Press 
     276    20267.431   -14.531729            0   -9.2921869   -17.664985 
     300    20267.431   -19.900225            0   -14.660683   -46.716324 
     316    20267.431   -30.527911            0   -25.288369    29.771681 
Loop time of 0.024184 on 2 procs for 40 steps with 3 atoms

101.3% CPU use with 2 MPI tasks x no OpenMP threads

Minimization stats:
  Stopping criterion = force tolerance
  Energy initial, next-to-last, final = 
        -14.5317291036     -30.5279110317     -30.5279110311
  Force two-norm initial, final = 0.06095 8.4521e-10
  Force max component initial, final = 0.06095 8.4521e-10
  Final line search alpha, max atom move = 1 8.4521e-10
  Iterations, force evaluations = 40 44

MPI task timing breakdown:
Section |  min time  |  avg time  |  max time  |%varavg| %total
---------------------------------------------------------------
Pair    | 5.9605e-06 | 1.5974e-05 | 2.5988e-05 |   0.3 |  0.07
Kspace  | 0.011975   | 0.01784    | 0.023705   |   4.4 | 73.77
Neigh   | 9.5367e-07 | 2.0266e-06 | 3.0994e-06 |   0.1 |  0.01
Comm    | 7.3433e-05 | 9.1076e-05 | 0.00010872 |   0.2 |  0.38
Output  | 1.2159e-05 | 1.4186e-05 | 1.6212e-05 |   0.1 |  0.06
Modify  | 6.1989e-06 | 6.5565e-06 | 6.9141e-06 |   0.0 |  0.03
Other   |            | 0.006214   |            |       | 25.69

Nlocal:    1.5 ave 3 max 0 min
Histogram: 1 0 0 0 0 0 0 0 0 1
Nghost:    1.5 ave 3 max 0 min
Histogram: 1 0 0 0 0 0 0 0 0 1
Neighs:    1.5 ave 3 max 0 min
Histogram: 1 0 0 0 0 0 0 0 0 1

Total # of neighbors = 3
Ave neighs/atom = 1
Neighbor list builds = 7
Dangerous builds = 0
WARNING: Resetting reneighboring criteria during minimization (../min.cpp:168)
Ewald initialization ...
  G vector (1/distance) = 0.301603
  estimated absolute RMS force accuracy = 1.61219e-05
  estimated relative force accuracy = 1.11961e-06
  KSpace vectors: actual max1d max3d = 7073 15 14895
                  kxmax kymax kzmax  = 15 15 15
Memory usage per processor = 7.81272 Mbytes
Step Temp E_pair E_mol TotEng Press 
     316    20267.431   -14.591073            0   -9.3515308   -17.945953 
Loop time of 1.43051e-06 on 2 procs for 0 steps with 3 atoms

0.0% CPU use with 2 MPI tasks x no OpenMP threads

Minimization stats:
  Stopping criterion = max iterations
  Energy initial, next-to-last, final = 
        -14.5910730271     -30.5279110317     -14.5910730271
  Force two-norm initial, final = 0.408583 0.408583
  Force max component initial, final = 0.408583 0.408583
  Final line search alpha, max atom move = 1 0.408583
  Iterations, force evaluations = 0 0

MPI task timing breakdown:
Section |  min time  |  avg time  |  max time  |%varavg| %total
---------------------------------------------------------------
Pair    | 0          | 0          | 0          |   0.0 |  0.00
Kspace  | 0          | 0          | 0          |   0.0 |  0.00
Neigh   | 0          | 0          | 0          |   0.0 |  0.00
Comm    | 0          | 0          | 0          |   0.0 |  0.00
Output  | 0          | 0          | 0          |   0.0 |  0.00
Modify  | 0          | 0          | 0          |   0.0 |  0.00
Other   |            | 1.431e-06  |            |       |100.00

Nlocal:    1.5 ave 3 max 0 min
Histogram: 1 0 0 0 0 0 0 0 0 1
Nghost:    1.5 ave 3 max 0 min
Histogram: 1 0 0 0 0 0 0 0 0 1
Neighs:    1.5 ave 3 max 0 min
Histogram: 1 0 0 0 0 0 0 0 0 1

Total # of neighbors = 3
Ave neighs/atom = 1
Neighbor list builds = 0
Dangerous builds = 0
WARNING: Resetting reneighboring criteria during minimization (../min.cpp:168)
Ewald initialization ...
  G vector (1/distance) = 0.301603
  estimated absolute RMS force accuracy = 1.61219e-05
  estimated relative force accuracy = 1.11961e-06
  KSpace vectors: actual max1d max3d = 7073 15 14895
                  kxmax kymax kzmax  = 15 15 15
Memory usage per processor = 7.81272 Mbytes
Step Temp E_pair E_mol TotEng Press 
     316    20267.431   -14.591073            0   -9.3515308   -17.945953 
Loop time of 1.90735e-06 on 2 procs for 0 steps with 3 atoms

0.0% CPU use with 2 MPI tasks x no OpenMP threads

Minimization stats:
  Stopping criterion = max iterations
  Energy initial, next-to-last, final = 
        -14.5910730271     -30.5279110317     -14.5910730271
  Force two-norm initial, final = 0.408583 0.408583
  Force max component initial, final = 0.408583 0.408583
  Final line search alpha, max atom move = 1 0.408583
  Iterations, force evaluations = 0 0

MPI task timing breakdown:
Section |  min time  |  avg time  |  max time  |%varavg| %total
---------------------------------------------------------------
Pair    | 0          | 0          | 0          |   0.0 |  0.00
Kspace  | 0          | 0          | 0          |   0.0 |  0.00
Neigh   | 0          | 0          | 0          |   0.0 |  0.00
Comm    | 0          | 0          | 0          |   0.0 |  0.00
Output  | 0          | 0          | 0          |   0.0 |  0.00
Modify  | 0          | 0          | 0          |   0.0 |  0.00
Other   |            | 1.907e-06  |            |       |100.00

Nlocal:    1.5 ave 3 max 0 min
Histogram: 1 0 0 0 0 0 0 0 0 1
Nghost:    1.5 ave 3 max 0 min
Histogram: 1 0 0 0 0 0 0 0 0 1
Neighs:    1.5 ave 3 max 0 min
Histogram: 1 0 0 0 0 0 0 0 0 1

Total # of neighbors = 3
Ave neighs/atom = 1
Neighbor list builds = 0
Dangerous builds = 0
WARNING: Resetting reneighboring criteria during minimization (../min.cpp:168)
Ewald initialization ...
  G vector (1/distance) = 0.301603
  estimated absolute RMS force accuracy = 1.61219e-05
  estimated relative force accuracy = 1.11961e-06
  KSpace vectors: actual max1d max3d = 7073 15 14895
                  kxmax kymax kzmax  = 15 15 15
Memory usage per processor = 7.81272 Mbytes
Step Temp E_pair E_mol TotEng Press 
     316    20267.431   -14.591073            0   -9.3515308   -17.945953 
     350    20267.431    -30.52775            0   -25.288208    30.568555 
     353    20267.431   -30.527911            0   -25.288369    29.771681 
Loop time of 0.0224888 on 2 procs for 37 steps with 3 atoms

100.0% CPU use with 2 MPI tasks x no OpenMP threads

Minimization stats:
  Stopping criterion = force tolerance
  Energy initial, next-to-last, final = 
        -14.5910730271      -30.527911031     -30.5279110311
  Force two-norm initial, final = 0.408583 3.46808e-10
  Force max component initial, final = 0.408583 3.46808e-10
  Final line search alpha, max atom move = 1 3.46808e-10
  Iterations, force evaluations = 37 41

MPI task timing breakdown:
Section |  min time  |  avg time  |  max time  |%varavg| %total
---------------------------------------------------------------
Pair    | 6.9141e-06 | 1.7881e-05 | 2.8849e-05 |   0.3 |  0.08
Kspace  | 0.011098   | 0.01658    | 0.022062   |   4.3 | 73.72
Neigh   | 1.9073e-06 | 2.3842e-06 | 2.861e-06  |   0.0 |  0.01
Comm    | 8.1062e-05 | 8.7976e-05 | 9.4891e-05 |   0.1 |  0.39
Output  | 1.2159e-05 | 1.359e-05  | 1.502e-05  |   0.0 |  0.06
Modify  | 5.9605e-06 | 7.1526e-06 | 8.3447e-06 |   0.0 |  0.03
Other   |            | 0.00578    |            |       | 25.70

Nlocal:    1.5 ave 3 max 0 min
Histogram: 1 0 0 0 0 0 0 0 0 1
Nghost:    1.5 ave 3 max 0 min
Histogram: 1 0 0 0 0 0 0 0 0 1
Neighs:    1.5 ave 3 max 0 min
Histogram: 1 0 0 0 0 0 0 0 0 1

Total # of neighbors = 3
Ave neighs/atom = 1
Neighbor list builds = 6
Dangerous builds = 0
WARNING: Resetting reneighboring criteria during minimization (../min.cpp:168)
Ewald initialization ...
  G vector (1/distance) = 0.301603
  estimated absolute RMS force accuracy = 1.61219e-05
  estimated relative force accuracy = 1.11961e-06
  KSpace vectors: actual max1d max3d = 7073 15 14895
                  kxmax kymax kzmax  = 15 15 15
Memory usage per processor = 7.81272 Mbytes
Step Temp E_pair E_mol TotEng Press 
     353    20267.431   -14.541284            0   -9.3017415   -17.710156 
Loop time of 1.90735e-06 on 2 procs for 0 steps with 3 atoms

0.0% CPU use with 2 MPI tasks x no OpenMP threads

Minimization stats:
  Stopping criterion = max iterations
  Energy initial, next-to-last, final = 
        -14.5412837113      -30.527911031     -14.5412837113
  Force two-norm initial, final = 0.172463 0.172463
  Force max component initial, final = 0.172463 0.172463
  Final line search alpha, max atom move = 1 0.172463
  Iterations, force evaluations = 0 0

MPI task timing breakdown:
Section |  min time  |  avg time  |  max time  |%varavg| %total
---------------------------------------------------------------
Pair    | 0          | 0          | 0          |   0.0 |  0.00
Kspace  | 0          | 0          | 0          |   0.0 |  0.00
Neigh   | 0          | 0          | 0          |   0.0 |  0.00
Comm    | 0          | 0          | 0          |   0.0 |  0.00
Output  | 0          | 0          | 0          |   0.0 |  0.00
Modify  | 0          | 0          | 0          |   0.0 |  0.00
Other   |            | 1.907e-06  |            |       |100.00

Nlocal:    1.5 ave 3 max 0 min
Histogram: 1 0 0 0 0 0 0 0 0 1
Nghost:    1.5 ave 3 max 0 min
Histogram: 1 0 0 0 0 0 0 0 0 1
Neighs:    1.5 ave 3 max 0 min
Histogram: 1 0 0 0 0 0 0 0 0 1

Total # of neighbors = 3
Ave neighs/atom = 1
Neighbor list builds = 0
Dangerous builds = 0
WARNING: Resetting reneighboring criteria during minimization (../min.cpp:168)
Ewald initialization ...
  G vector (1/distance) = 0.301603
  estimated absolute RMS force accuracy = 1.61219e-05
  estimated relative force accuracy = 1.11961e-06
  KSpace vectors: actual max1d max3d = 7073 15 14895
                  kxmax kymax kzmax  = 15 15 15
Memory usage per processor = 7.81272 Mbytes
Step Temp E_pair E_mol TotEng Press 
     353    20267.431   -14.541284            0   -9.3017415   -17.710156 
Loop time of 1.90735e-06 on 2 procs for 0 steps with 3 atoms

0.0% CPU use with 2 MPI tasks x no OpenMP threads

Minimization stats:
  Stopping criterion = max iterations
  Energy initial, next-to-last, final = 
        -14.5412837113      -30.527911031     -14.5412837113
  Force two-norm initial, final = 0.172463 0.172463
  Force max component initial, final = 0.172463 0.172463
  Final line search alpha, max atom move = 1 0.172463
  Iterations, force evaluations = 0 0

MPI task timing breakdown:
Section |  min time  |  avg time  |  max time  |%varavg| %total
---------------------------------------------------------------
Pair    | 0          | 0          | 0          |   0.0 |  0.00
Kspace  | 0          | 0          | 0          |   0.0 |  0.00
Neigh   | 0          | 0          | 0          |   0.0 |  0.00
Comm    | 0          | 0          | 0          |   0.0 |  0.00
Output  | 0          | 0          | 0          |   0.0 |  0.00
Modify  | 0          | 0          | 0          |   0.0 |  0.00
Other   |            | 1.907e-06  |            |       |100.00

Nlocal:    1.5 ave 3 max 0 min
Histogram: 1 0 0 0 0 0 0 0 0 1
Nghost:    1.5 ave 3 max 0 min
Histogram: 1 0 0 0 0 0 0 0 0 1
Neighs:    1.5 ave 3 max 0 min
Histogram: 1 0 0 0 0 0 0 0 0 1

Total # of neighbors = 3
Ave neighs/atom = 1
Neighbor list builds = 0
Dangerous builds = 0
WARNING: Resetting reneighboring criteria during minimization (../min.cpp:168)
Ewald initialization ...
  G vector (1/distance) = 0.301603
  estimated absolute RMS force accuracy = 1.61219e-05
  estimated relative force accuracy = 1.11961e-06
  KSpace vectors: actual max1d max3d = 7073 15 14895
                  kxmax kymax kzmax  = 15 15 15
Memory usage per processor = 7.81272 Mbytes
Step Temp E_pair E_mol TotEng Press 
     353    20267.431   -14.541284            0   -9.3017415   -17.710156 
     390    20267.431   -30.527911            0   -25.288369    29.771681 
Loop time of 0.0219281 on 2 procs for 37 steps with 3 atoms

100.3% CPU use with 2 MPI tasks x no OpenMP threads

Minimization stats:
  Stopping criterion = force tolerance
  Energy initial, next-to-last, final = 
        -14.5412837113     -30.5279110316     -30.5279110311
  Force two-norm initial, final = 0.172463 7.65365e-09
  Force max component initial, final = 0.172463 7.65365e-09
  Final line search alpha, max atom move = 1 7.65365e-09
  Iterations, force evaluations = 37 40

MPI task timing breakdown:
Section |  min time  |  avg time  |  max time  |%varavg| %total
---------------------------------------------------------------
Pair    | 5.0068e-06 | 1.3232e-05 | 2.1458e-05 |   0.2 |  0.06
Kspace  | 0.010803   | 0.016163   | 0.021523   |   4.2 | 73.71
Neigh   | 9.5367e-07 | 1.4305e-06 | 1.9073e-06 |   0.0 |  0.01
Comm    | 8.0347e-05 | 8.6665e-05 | 9.2983e-05 |   0.1 |  0.40
Output  | 0          | 0          | 0          |   0.0 |  0.00
Modify  | 9.5367e-07 | 5.9605e-06 | 1.0967e-05 |   0.2 |  0.03
Other   |            | 0.005658   |            |       | 25.80

Nlocal:    1.5 ave 3 max 0 min
Histogram: 1 0 0 0 0 0 0 0 0 1
Nghost:    1.5 ave 3 max 0 min
Histogram: 1 0 0 0 0 0 0 0 0 1
Neighs:    1.5 ave 3 max 0 min
Histogram: 1 0 0 0 0 0 0 0 0 1

Total # of neighbors = 3
Ave neighs/atom = 1
Neighbor list builds = 6
Dangerous builds = 0
WARNING: Resetting reneighboring criteria during minimization (../min.cpp:168)
Ewald initialization ...
  G vector (1/distance) = 0.301603
  estimated absolute RMS force accuracy = 1.61219e-05
  estimated relative force accuracy = 1.11961e-06
  KSpace vectors: actual max1d max3d = 7073 15 14895
                  kxmax kymax kzmax  = 15 15 15
Memory usage per processor = 7.81272 Mbytes
Step Temp E_pair E_mol TotEng Press 
     390    20267.431   -14.541284            0   -9.3017415   -17.710156 
     396    20267.431   -14.897779            0   -9.6582364   -19.412529 
Loop time of 0.00325894 on 2 procs for 6 steps with 3 atoms

107.4% CPU use with 2 MPI tasks x no OpenMP threads

Minimization stats:
  Stopping criterion = max iterations
  Energy initial, next-to-last, final = 
        -14.5412837113     -14.8019482475     -14.8977785991
  Force two-norm initial, final = 0.172463 1.03545
  Force max component initial, final = 0.172463 1.03545
  Final line search alpha, max atom move = 0.113374 0.117394
  Iterations, force evaluations = 6 6

MPI task timing breakdown:
Section |  min time  |  avg time  |  max time  |%varavg| %total
---------------------------------------------------------------
Pair    | 2.1458e-06 | 3.5763e-06 | 5.0068e-06 |   0.1 |  0.11
Kspace  | 0.0016072  | 0.0023937  | 0.0031803  |   1.6 | 73.45
Neigh   | 0          | 0          | 0          |   0.0 |  0.00
Comm    | 1.1683e-05 | 1.4186e-05 | 1.6689e-05 |   0.1 |  0.44
Output  | 1.0967e-05 | 1.2994e-05 | 1.502e-05  |   0.1 |  0.40
Modify  | 0          | 4.7684e-07 | 9.5367e-07 |   0.1 |  0.01
Other   |            | 0.000834   |            |       | 25.59

Nlocal:    1.5 ave 3 max 0 min
Histogram: 1 0 0 0 0 0 0 0 0 1
Nghost:    1.5 ave 3 max 0 min
Histogram: 1 0 0 0 0 0 0 0 0 1
Neighs:    1.5 ave 3 max 0 min
Histogram: 1 0 0 0 0 0 0 0 0 1

Total # of neighbors = 3
Ave neighs/atom = 1
Neighbor list builds = 1
Dangerous builds = 0
WARNING: Resetting reneighboring criteria during minimization (../min.cpp:168)
Ewald initialization ...
  G vector (1/distance) = 0.301603
  estimated absolute RMS force accuracy = 1.61219e-05
  estimated relative force accuracy = 1.11961e-06
  KSpace vectors: actual max1d max3d = 7073 15 14895
                  kxmax kymax kzmax  = 15 15 15
Memory usage per processor = 7.81272 Mbytes
Step Temp E_pair E_mol TotEng Press 
     396    20267.431   -14.531729            0   -9.2921869   -17.664985 
     400    20267.431   -14.643056            0   -9.4035138   -18.192797 
     402    20267.431   -14.783801            0   -9.5442586   -18.864621 
Loop time of 0.0032959 on 2 procs for 6 steps with 3 atoms

106.2% CPU use with 2 MPI tasks x no OpenMP threads

Minimization stats:
  Stopping criterion = max iterations
  Energy initial, next-to-last, final = 
        -14.5317291036     -14.7061555077     -14.7838007772
  Force two-norm initial, final = 0.06095 0.850559
  Force max component initial, final = 0.06095 0.850559
  Final line search alpha, max atom move = 0.142232 0.120977
  Iterations, force evaluations = 6 6

MPI task timing breakdown:
Section |  min time  |  avg time  |  max time  |%varavg| %total
---------------------------------------------------------------
Pair    | 9.5367e-07 | 2.5034e-06 | 4.0531e-06 |   0.1 |  0.08
Kspace  | 0.0016325  | 0.0024188  | 0.0032051  |   1.6 | 73.39
Neigh   | 0          | 0          | 0          |   0.0 |  0.00
Comm    | 1.2875e-05 | 1.4305e-05 | 1.5736e-05 |   0.0 |  0.43
Output  | 2.0742e-05 | 2.3723e-05 | 2.6703e-05 |   0.1 |  0.72
Modify  | 1.9073e-06 | 2.0266e-06 | 2.1458e-06 |   0.0 |  0.06
Other   |            | 0.0008346  |            |       | 25.32

Nlocal:    1.5 ave 3 max 0 min
Histogram: 1 0 0 0 0 0 0 0 0 1
Nghost:    1.5 ave 3 max 0 min
Histogram: 1 0 0 0 0 0 0 0 0 1
Neighs:    1.5 ave 3 max 0 min
Histogram: 1 0 0 0 0 0 0 0 0 1

Total # of neighbors = 3
Ave neighs/atom = 1
Neighbor list builds = 1
Dangerous builds = 0
WARNING: Resetting reneighboring criteria during minimization (../min.cpp:168)
Ewald initialization ...
  G vector (1/distance) = 0.301603
  estimated absolute RMS force accuracy = 1.61219e-05
  estimated relative force accuracy = 1.11961e-06
  KSpace vectors: actual max1d max3d = 7073 15 14895
                  kxmax kymax kzmax  = 15 15 15
Memory usage per processor = 7.81272 Mbytes
Step Temp E_pair E_mol TotEng Press 
     402    20267.431   -14.532847            0   -9.2933051   -17.670271 
Loop time of 2.14577e-06 on 2 procs for 0 steps with 3 atoms

0.0% CPU use with 2 MPI tasks x no OpenMP threads

Minimization stats:
  Stopping criterion = max iterations
  Energy initial, next-to-last, final = 
        -14.5328473118     -14.7061555077     -14.5328473118
  Force two-norm initial, final = 0.0821953 0.0821953
  Force max component initial, final = 0.0821953 0.0821953
  Final line search alpha, max atom move = 0.142232 0.0116908
  Iterations, force evaluations = 0 0

MPI task timing breakdown:
Section |  min time  |  avg time  |  max time  |%varavg| %total
---------------------------------------------------------------
Pair    | 0          | 0          | 0          |   0.0 |  0.00
Kspace  | 0          | 0          | 0          |   0.0 |  0.00
Neigh   | 0          | 0          | 0          |   0.0 |  0.00
Comm    | 0          | 0          | 0          |   0.0 |  0.00
Output  | 0          | 0          | 0          |   0.0 |  0.00
Modify  | 0          | 0          | 0          |   0.0 |  0.00
Other   |            | 2.146e-06  |            |       |100.00

Nlocal:    1.5 ave 3 max 0 min
Histogram: 1 0 0 0 0 0 0 0 0 1
Nghost:    1.5 ave 3 max 0 min
Histogram: 1 0 0 0 0 0 0 0 0 1
Neighs:    1.5 ave 3 max 0 min
Histogram: 1 0 0 0 0 0 0 0 0 1

Total # of neighbors = 3
Ave neighs/atom = 1
Neighbor list builds = 0
Dangerous builds = 0
WARNING: Resetting reneighboring criteria during minimization (../min.cpp:168)
Ewald initialization ...
  G vector (1/distance) = 0.301603
  estimated absolute RMS force accuracy = 1.61219e-05
  estimated relative force accuracy = 1.11961e-06
  KSpace vectors: actual max1d max3d = 7073 15 14895
                  kxmax kymax kzmax  = 15 15 15
Memory usage per processor = 7.81272 Mbytes
Step Temp E_pair E_mol TotEng Press 
     402    20267.431   -14.532847            0   -9.2933051   -17.670271 
Loop time of 2.14577e-06 on 2 procs for 0 steps with 3 atoms

0.0% CPU use with 2 MPI tasks x no OpenMP threads

Minimization stats:
  Stopping criterion = max iterations
  Energy initial, next-to-last, final = 
        -14.5328473118     -14.7061555077     -14.5328473118
  Force two-norm initial, final = 0.0821953 0.0821953
  Force max component initial, final = 0.0821953 0.0821953
  Final line search alpha, max atom move = 0.142232 0.0116908
  Iterations, force evaluations = 0 0

MPI task timing breakdown:
Section |  min time  |  avg time  |  max time  |%varavg| %total
---------------------------------------------------------------
Pair    | 0          | 0          | 0          |   0.0 |  0.00
Kspace  | 0          | 0          | 0          |   0.0 |  0.00
Neigh   | 0          | 0          | 0          |   0.0 |  0.00
Comm    | 0          | 0          | 0          |   0.0 |  0.00
Output  | 0          | 0          | 0          |   0.0 |  0.00
Modify  | 0          | 0          | 0          |   0.0 |  0.00
Other   |            | 2.146e-06  |            |       |100.00

Nlocal:    1.5 ave 3 max 0 min
Histogram: 1 0 0 0 0 0 0 0 0 1
Nghost:    1.5 ave 3 max 0 min
Histogram: 1 0 0 0 0 0 0 0 0 1
Neighs:    1.5 ave 3 max 0 min
Histogram: 1 0 0 0 0 0 0 0 0 1

Total # of neighbors = 3
Ave neighs/atom = 1
Neighbor list builds = 0
Dangerous builds = 0
WARNING: Resetting reneighboring criteria during minimization (../min.cpp:168)
Ewald initialization ...
  G vector (1/distance) = 0.301603
  estimated absolute RMS force accuracy = 1.61219e-05
  estimated relative force accuracy = 1.11961e-06
  KSpace vectors: actual max1d max3d = 7073 15 14895
                  kxmax kymax kzmax  = 15 15 15
Memory usage per processor = 7.81272 Mbytes
Step Temp E_pair E_mol TotEng Press 
     402    20267.431   -14.532847            0   -9.2933051   -17.670271 
     440    20267.431   -30.527911            0   -25.288369    29.771681 
Loop time of 0.0225093 on 2 procs for 38 steps with 3 atoms

99.9% CPU use with 2 MPI tasks x no OpenMP threads

Minimization stats:
  Stopping criterion = force tolerance
  Energy initial, next-to-last, final = 
        -14.5328473118     -30.5279110314     -30.5279110311
  Force two-norm initial, final = 0.0821953 5.05002e-09
  Force max component initial, final = 0.0821953 5.05002e-09
  Final line search alpha, max atom move = 1 5.05002e-09
  Iterations, force evaluations = 38 41

MPI task timing breakdown:
Section |  min time  |  avg time  |  max time  |%varavg| %total
---------------------------------------------------------------
Pair    | 3.8147e-06 | 1.4544e-05 | 2.5272e-05 |   0.3 |  0.06
Kspace  | 0.011194   | 0.016646   | 0.022099   |   4.2 | 73.95
Neigh   | 9.5367e-07 | 1.4305e-06 | 1.9073e-06 |   0.0 |  0.01
Comm    | 7.8678e-05 | 9.0241e-05 | 0.0001018  |   0.1 |  0.40
Output  | 0          | 0          | 0          |   0.0 |  0.00
Modify  | 7.1526e-06 | 8.4639e-06 | 9.7752e-06 |   0.0 |  0.04
Other   |            | 0.005749   |            |       | 25.54

Nlocal:    1.5 ave 3 max 0 min
Histogram: 1 0 0 0 0 0 0 0 0 1
Nghost:    1.5 ave 3 max 0 min
Histogram: 1 0 0 0 0 0 0 0 0 1
Neighs:    1.5 ave 3 max 0 min
Histogram: 1 0 0 0 0 0 0 0 0 1

Total # of neighbors = 3
Ave neighs/atom = 1
Neighbor list builds = 6
Dangerous builds = 0
WARNING: Resetting reneighboring criteria during minimization (../min.cpp:168)
Ewald initialization ...
  G vector (1/distance) = 0.301603
  estimated absolute RMS force accuracy = 1.61219e-05
  estimated relative force accuracy = 1.11961e-06
  KSpace vectors: actual max1d max3d = 7073 15 14895
                  kxmax kymax kzmax  = 15 15 15
Memory usage per processor = 7.81272 Mbytes
Step Temp E_pair E_mol TotEng Press 
     440    20267.431   -14.581036            0   -9.3414936   -17.898368 
Loop time of 1.90735e-06 on 2 procs for 0 steps with 3 atoms

0.0% CPU use with 2 MPI tasks x no OpenMP threads

Minimization stats:
  Stopping criterion = max iterations
  Energy initial, next-to-last, final = 
        -14.5810358003     -30.5279110314     -14.5810358003
  Force two-norm initial, final = 0.37292 0.37292
  Force max component initial, final = 0.37292 0.37292
  Final line search alpha, max atom move = 1 0.37292
  Iterations, force evaluations = 0 0

MPI task timing breakdown:
Section |  min time  |  avg time  |  max time  |%varavg| %total
---------------------------------------------------------------
Pair    | 0          | 0          | 0          |   0.0 |  0.00
Kspace  | 0          | 0          | 0          |   0.0 |  0.00
Neigh   | 0          | 0          | 0          |   0.0 |  0.00
Comm    | 0          | 0          | 0          |   0.0 |  0.00
Output  | 0          | 0          | 0          |   0.0 |  0.00
Modify  | 0          | 0          | 0          |   0.0 |  0.00
Other   |            | 1.907e-06  |            |       |100.00

Nlocal:    1.5 ave 3 max 0 min
Histogram: 1 0 0 0 0 0 0 0 0 1
Nghost:    1.5 ave 3 max 0 min
Histogram: 1 0 0 0 0 0 0 0 0 1
Neighs:    1.5 ave 3 max 0 min
Histogram: 1 0 0 0 0 0 0 0 0 1

Total # of neighbors = 3
Ave neighs/atom = 1
Neighbor list builds = 0
Dangerous builds = 0
WARNING: Resetting reneighboring criteria during minimization (../min.cpp:168)
Ewald initialization ...
  G vector (1/distance) = 0.301603
  estimated absolute RMS force accuracy = 1.61219e-05
  estimated relative force accuracy = 1.11961e-06
  KSpace vectors: actual max1d max3d = 7073 15 14895
                  kxmax kymax kzmax  = 15 15 15
Memory usage per processor = 7.81272 Mbytes
Step Temp E_pair E_mol TotEng Press 
     440    20267.431   -14.581036            0   -9.3414936   -17.898368 
Loop time of 9.53674e-07 on 2 procs for 0 steps with 3 atoms

0.0% CPU use with 2 MPI tasks x no OpenMP threads

Minimization stats:
  Stopping criterion = max iterations
  Energy initial, next-to-last, final = 
        -14.5810358003     -30.5279110314     -14.5810358003
  Force two-norm initial, final = 0.37292 0.37292
  Force max component initial, final = 0.37292 0.37292
  Final line search alpha, max atom move = 1 0.37292
  Iterations, force evaluations = 0 0

MPI task timing breakdown:
Section |  min time  |  avg time  |  max time  |%varavg| %total
---------------------------------------------------------------
Pair    | 0          | 0          | 0          |   0.0 |  0.00
Kspace  | 0          | 0          | 0          |   0.0 |  0.00
Neigh   | 0          | 0          | 0          |   0.0 |  0.00
Comm    | 0          | 0          | 0          |   0.0 |  0.00
Output  | 0          | 0          | 0          |   0.0 |  0.00
Modify  | 0          | 0          | 0          |   0.0 |  0.00
Other   |            | 9.537e-07  |            |       |100.00

Nlocal:    1.5 ave 3 max 0 min
Histogram: 1 0 0 0 0 0 0 0 0 1
Nghost:    1.5 ave 3 max 0 min
Histogram: 1 0 0 0 0 0 0 0 0 1
Neighs:    1.5 ave 3 max 0 min
Histogram: 1 0 0 0 0 0 0 0 0 1

Total # of neighbors = 3
Ave neighs/atom = 1
Neighbor list builds = 0
Dangerous builds = 0
WARNING: Resetting reneighboring criteria during minimization (../min.cpp:168)
Ewald initialization ...
  G vector (1/distance) = 0.301603
  estimated absolute RMS force accuracy = 1.61219e-05
  estimated relative force accuracy = 1.11961e-06
  KSpace vectors: actual max1d max3d = 7073 15 14895
                  kxmax kymax kzmax  = 15 15 15
Memory usage per processor = 7.81272 Mbytes
Step Temp E_pair E_mol TotEng Press 
     440    20267.431   -14.581036            0   -9.3414936   -17.898368 
     450    20267.431   -15.716617            0   -10.477075   -23.457659 
     477    20267.431   -30.527911            0   -25.288369    29.771681 
Loop time of 0.0225129 on 2 procs for 37 steps with 3 atoms

99.9% CPU use with 2 MPI tasks x no OpenMP threads

Minimization stats:
  Stopping criterion = force tolerance
  Energy initial, next-to-last, final = 
        -14.5810358003     -30.5279110312     -30.5279110311
  Force two-norm initial, final = 0.37292 1.02302e-10
  Force max component initial, final = 0.37292 1.02302e-10
  Final line search alpha, max atom move = 1 1.02302e-10
  Iterations, force evaluations = 37 41

MPI task timing breakdown:
Section |  min time  |  avg time  |  max time  |%varavg| %total
---------------------------------------------------------------
Pair    | 5.0068e-06 | 1.4663e-05 | 2.4319e-05 |   0.3 |  0.07
Kspace  | 0.011104   | 0.016585   | 0.022067   |   4.3 | 73.67
Neigh   | 1.9073e-06 | 2.3842e-06 | 2.861e-06  |   0.0 |  0.01
Comm    | 7.6771e-05 | 8.7619e-05 | 9.8467e-05 |   0.1 |  0.39
Output  | 1.2159e-05 | 1.359e-05  | 1.502e-05  |   0.0 |  0.06
Modify  | 6.9141e-06 | 7.5102e-06 | 8.1062e-06 |   0.0 |  0.03
Other   |            | 0.005802   |            |       | 25.77

Nlocal:    1.5 ave 3 max 0 min
Histogram: 1 0 0 0 0 0 0 0 0 1
Nghost:    1.5 ave 3 max 0 min
Histogram: 1 0 0 0 0 0 0 0 0 1
Neighs:    1.5 ave 3 max 0 min
Histogram: 1 0 0 0 0 0 0 0 0 1

Total # of neighbors = 3
Ave neighs/atom = 1
Neighbor list builds = 6
Dangerous builds = 0
WARNING: Resetting reneighboring criteria during minimization (../min.cpp:168)
Ewald initialization ...
  G vector (1/distance) = 0.301603
  estimated absolute RMS force accuracy = 1.61219e-05
  estimated relative force accuracy = 1.11961e-06
  KSpace vectors: actual max1d max3d = 7073 15 14895
                  kxmax kymax kzmax  = 15 15 15
Memory usage per processor = 7.81272 Mbytes
Step Temp E_pair E_mol TotEng Press 
     477    20267.431   -14.538013            0   -9.2984709   -17.694696 
Loop time of 1.90735e-06 on 2 procs for 0 steps with 3 atoms

0.0% CPU use with 2 MPI tasks x no OpenMP threads

Minimization stats:
  Stopping criterion = max iterations
  Energy initial, next-to-last, final = 
         -14.538013093     -30.5279110312      -14.538013093
  Force two-norm initial, final = 0.144297 0.144297
  Force max component initial, final = 0.144297 0.144297
  Final line search alpha, max atom move = 1 0.144297
  Iterations, force evaluations = 0 0

MPI task timing breakdown:
Section |  min time  |  avg time  |  max time  |%varavg| %total
---------------------------------------------------------------
Pair    | 0          | 0          | 0          |   0.0 |  0.00
Kspace  | 0          | 0          | 0          |   0.0 |  0.00
Neigh   | 0          | 0          | 0          |   0.0 |  0.00
Comm    | 0          | 0          | 0          |   0.0 |  0.00
Output  | 0          | 0          | 0          |   0.0 |  0.00
Modify  | 0          | 0          | 0          |   0.0 |  0.00
Other   |            | 1.907e-06  |            |       |100.00

Nlocal:    1.5 ave 3 max 0 min
Histogram: 1 0 0 0 0 0 0 0 0 1
Nghost:    1.5 ave 3 max 0 min
Histogram: 1 0 0 0 0 0 0 0 0 1
Neighs:    1.5 ave 3 max 0 min
Histogram: 1 0 0 0 0 0 0 0 0 1

Total # of neighbors = 3
Ave neighs/atom = 1
Neighbor list builds = 0
Dangerous builds = 0
WARNING: Resetting reneighboring criteria during minimization (../min.cpp:168)
Ewald initialization ...
  G vector (1/distance) = 0.301603
  estimated absolute RMS force accuracy = 1.61219e-05
  estimated relative force accuracy = 1.11961e-06
  KSpace vectors: actual max1d max3d = 7073 15 14895
                  kxmax kymax kzmax  = 15 15 15
Memory usage per processor = 7.81272 Mbytes
Step Temp E_pair E_mol TotEng Press 
     477    20267.431   -14.538013            0   -9.2984709   -17.694696 
Loop time of 1.43051e-06 on 2 procs for 0 steps with 3 atoms

0.0% CPU use with 2 MPI tasks x no OpenMP threads

Minimization stats:
  Stopping criterion = max iterations
  Energy initial, next-to-last, final = 
         -14.538013093     -30.5279110312      -14.538013093
  Force two-norm initial, final = 0.144297 0.144297
  Force max component initial, final = 0.144297 0.144297
  Final line search alpha, max atom move = 1 0.144297
  Iterations, force evaluations = 0 0

MPI task timing breakdown:
Section |  min time  |  avg time  |  max time  |%varavg| %total
---------------------------------------------------------------
Pair    | 0          | 0          | 0          |   0.0 |  0.00
Kspace  | 0          | 0          | 0          |   0.0 |  0.00
Neigh   | 0          | 0          | 0          |   0.0 |  0.00
Comm    | 0          | 0          | 0          |   0.0 |  0.00
Output  | 0          | 0          | 0          |   0.0 |  0.00
Modify  | 0          | 0          | 0          |   0.0 |  0.00
Other   |            | 1.431e-06  |            |       |100.00

Nlocal:    1.5 ave 3 max 0 min
Histogram: 1 0 0 0 0 0 0 0 0 1
Nghost:    1.5 ave 3 max 0 min
Histogram: 1 0 0 0 0 0 0 0 0 1
Neighs:    1.5 ave 3 max 0 min
Histogram: 1 0 0 0 0 0 0 0 0 1

Total # of neighbors = 3
Ave neighs/atom = 1
Neighbor list builds = 0
Dangerous builds = 0
WARNING: Resetting reneighboring criteria during minimization (../min.cpp:168)
Ewald initialization ...
  G vector (1/distance) = 0.301603
  estimated absolute RMS force accuracy = 1.61219e-05
  estimated relative force accuracy = 1.11961e-06
  KSpace vectors: actual max1d max3d = 7073 15 14895
                  kxmax kymax kzmax  = 15 15 15
Memory usage per processor = 7.81272 Mbytes
Step Temp E_pair E_mol TotEng Press 
     477    20267.431   -14.538013            0   -9.2984709   -17.694696 
     500    20267.431   -19.902029            0   -14.662487   -46.726597 
     516    20267.431   -30.527911            0   -25.288369    29.771681 
Loop time of 0.0237894 on 2 procs for 39 steps with 3 atoms

98.8% CPU use with 2 MPI tasks x no OpenMP threads

Minimization stats:
  Stopping criterion = force tolerance
  Energy initial, next-to-last, final = 
         -14.538013093     -30.5279110317     -30.5279110311
  Force two-norm initial, final = 0.144297 8.22797e-10
  Force max component initial, final = 0.144297 8.22797e-10
  Final line search alpha, max atom move = 1 8.22797e-10
  Iterations, force evaluations = 39 43

MPI task timing breakdown:
Section |  min time  |  avg time  |  max time  |%varavg| %total
---------------------------------------------------------------
Pair    | 5.722e-06  | 2.2411e-05 | 3.9101e-05 |   0.4 |  0.09
Kspace  | 0.011745   | 0.017492   | 0.023238   |   4.3 | 73.53
Neigh   | 2.1458e-06 | 3.5763e-06 | 5.0068e-06 |   0.1 |  0.02
Comm    | 8.6784e-05 | 0.00010467 | 0.00012255 |   0.2 |  0.44
Output  | 2.0981e-05 | 2.5988e-05 | 3.0994e-05 |   0.1 |  0.11
Modify  | 1.3828e-05 | 1.4901e-05 | 1.5974e-05 |   0.0 |  0.06
Other   |            | 0.006126   |            |       | 25.75

Nlocal:    1.5 ave 3 max 0 min
Histogram: 1 0 0 0 0 0 0 0 0 1
Nghost:    1.5 ave 3 max 0 min
Histogram: 1 0 0 0 0 0 0 0 0 1
Neighs:    1.5 ave 3 max 0 min
Histogram: 1 0 0 0 0 0 0 0 0 1

Total # of neighbors = 3
Ave neighs/atom = 1
Neighbor list builds = 7
Dangerous builds = 0
WARNING: Resetting reneighboring criteria during minimization (../min.cpp:168)
Ewald initialization ...
  G vector (1/distance) = 0.301603
  estimated absolute RMS force accuracy = 1.61219e-05
  estimated relative force accuracy = 1.11961e-06
  KSpace vectors: actual max1d max3d = 7073 15 14895
                  kxmax kymax kzmax  = 15 15 15
Memory usage per processor = 7.81272 Mbytes
Step Temp E_pair E_mol TotEng Press 
     516    20267.431   -14.532847            0   -9.2933051   -17.670271 
     522    20267.431   -14.816183            0    -9.576641   -19.019933 
Loop time of 0.0032481 on 2 procs for 6 steps with 3 atoms

92.3% CPU use with 2 MPI tasks x no OpenMP threads

Minimization stats:
  Stopping criterion = max iterations
  Energy initial, next-to-last, final = 
        -14.5328473118     -14.7330692008     -14.8161831555
  Force two-norm initial, final = 0.0821953 0.906098
  Force max component initial, final = 0.0821953 0.906098
  Final line search alpha, max atom move = 0.132109 0.119703
  Iterations, force evaluations = 6 6

MPI task timing breakdown:
Section |  min time  |  avg time  |  max time  |%varavg| %total
---------------------------------------------------------------
Pair    | 9.5367e-07 | 1.4305e-06 | 1.9073e-06 |   0.0 |  0.04
Kspace  | 0.001606   | 0.0023882  | 0.0031705  |   1.6 | 73.53
Neigh   | 0          | 0          | 0          |   0.0 |  0.00
Comm    | 1.3828e-05 | 1.514e-05  | 1.6451e-05 |   0.0 |  0.47
Output  | 1.1921e-05 | 1.3947e-05 | 1.5974e-05 |   0.1 |  0.43
Modify  | 0          | 1.1921e-06 | 2.3842e-06 |   0.1 |  0.04
Other   |            | 0.0008281  |            |       | 25.50

Nlocal:    1.5 ave 3 max 0 min
Histogram: 1 0 0 0 0 0 0 0 0 1
Nghost:    1.5 ave 3 max 0 min
Histogram: 1 0 0 0 0 0 0 0 0 1
Neighs:    1.5 ave 3 max 0 min
Histogram: 1 0 0 0 0 0 0 0 0 1

Total # of neighbors = 3
Ave neighs/atom = 1
Neighbor list builds = 1
Dangerous builds = 0
WARNING: Resetting reneighboring criteria during minimization (../min.cpp:168)
Ewald initialization ...
  G vector (1/distance) = 0.301603
  estimated absolute RMS force accuracy = 1.61219e-05
  estimated relative force accuracy = 1.11961e-06
  KSpace vectors: actual max1d max3d = 7073 15 14895
                  kxmax kymax kzmax  = 15 15 15
Memory usage per processor = 7.81272 Mbytes
Step Temp E_pair E_mol TotEng Press 
     522    20267.431   -14.538013            0   -9.2984709   -17.694696 
     528    20267.431   -14.876721            0   -9.6371789   -19.311025 
Loop time of 0.00326991 on 2 procs for 6 steps with 3 atoms

91.7% CPU use with 2 MPI tasks x no OpenMP threads

Minimization stats:
  Stopping criterion = max iterations
  Energy initial, next-to-last, final = 
         -14.538013093     -14.7840509374     -14.8767211099
  Force two-norm initial, final = 0.144297 1.0033
  Force max component initial, final = 0.144297 1.0033
  Final line search alpha, max atom move = 0.117509 0.117897
  Iterations, force evaluations = 6 6

MPI task timing breakdown:
Section |  min time  |  avg time  |  max time  |%varavg| %total
---------------------------------------------------------------
Pair    | 2.861e-06  | 2.9802e-06 | 3.0994e-06 |   0.0 |  0.09
Kspace  | 0.0016284  | 0.0024128  | 0.0031972  |   1.6 | 73.79
Neigh   | 0          | 0          | 0          |   0.0 |  0.00
Comm    | 1.6212e-05 | 1.7047e-05 | 1.7881e-05 |   0.0 |  0.52
Output  | 1.0014e-05 | 1.204e-05  | 1.4067e-05 |   0.1 |  0.37
Modify  | 1.9073e-06 | 2.0266e-06 | 2.1458e-06 |   0.0 |  0.06
Other   |            | 0.000823   |            |       | 25.17

Nlocal:    1.5 ave 3 max 0 min
Histogram: 1 0 0 0 0 0 0 0 0 1
Nghost:    1.5 ave 3 max 0 min
Histogram: 1 0 0 0 0 0 0 0 0 1
Neighs:    1.5 ave 3 max 0 min
Histogram: 1 0 0 0 0 0 0 0 0 1

Total # of neighbors = 3
Ave neighs/atom = 1
Neighbor list builds = 1
Dangerous builds = 0
WARNING: Resetting reneighboring criteria during minimization (../min.cpp:168)
Ewald initialization ...
  G vector (1/distance) = 0.301603
  estimated absolute RMS force accuracy = 1.61219e-05
  estimated relative force accuracy = 1.11961e-06
  KSpace vectors: actual max1d max3d = 7073 15 14895
                  kxmax kymax kzmax  = 15 15 15
Memory usage per processor = 7.81272 Mbytes
Step Temp E_pair E_mol TotEng Press 
     528    20267.431   -14.531045            0   -9.2915031   -17.661749 
Loop time of 1.90735e-06 on 2 procs for 0 steps with 3 atoms

0.0% CPU use with 2 MPI tasks x no OpenMP threads

Minimization stats:
  Stopping criterion = max iterations
  Energy initial, next-to-last, final = 
        -14.5310452404     -14.7840509374     -14.5310452404
  Force two-norm initial, final = 0.0430917 0.0430917
  Force max component initial, final = 0.0430917 0.0430917
  Final line search alpha, max atom move = 0.117509 0.00506366
  Iterations, force evaluations = 0 0

MPI task timing breakdown:
Section |  min time  |  avg time  |  max time  |%varavg| %total
---------------------------------------------------------------
Pair    | 0          | 0          | 0          |   0.0 |  0.00
Kspace  | 0          | 0          | 0          |   0.0 |  0.00
Neigh   | 0          | 0          | 0          |   0.0 |  0.00
Comm    | 0          | 0          | 0          |   0.0 |  0.00
Output  | 0          | 0          | 0          |   0.0 |  0.00
Modify  | 0          | 0          | 0          |   0.0 |  0.00
Other   |            | 1.907e-06  |            |       |100.00

Nlocal:    1.5 ave 3 max 0 min
Histogram: 1 0 0 0 0 0 0 0 0 1
Nghost:    1.5 ave 3 max 0 min
Histogram: 1 0 0 0 0 0 0 0 0 1
Neighs:    1.5 ave 3 max 0 min
Histogram: 1 0 0 0 0 0 0 0 0 1

Total # of neighbors = 3
Ave neighs/atom = 1
Neighbor list builds = 0
Dangerous builds = 0
WARNING: Resetting reneighboring criteria during minimization (../min.cpp:168)
Ewald initialization ...
  G vector (1/distance) = 0.301603
  estimated absolute RMS force accuracy = 1.61219e-05
  estimated relative force accuracy = 1.11961e-06
  KSpace vectors: actual max1d max3d = 7073 15 14895
                  kxmax kymax kzmax  = 15 15 15
Memory usage per processor = 7.81272 Mbytes
Step Temp E_pair E_mol TotEng Press 
     528    20267.431   -14.531045            0   -9.2915031   -17.661749 
Loop time of 2.02656e-06 on 2 procs for 0 steps with 3 atoms

0.0% CPU use with 2 MPI tasks x no OpenMP threads

Minimization stats:
  Stopping criterion = max iterations
  Energy initial, next-to-last, final = 
        -14.5310452404     -14.7840509374     -14.5310452404
  Force two-norm initial, final = 0.0430917 0.0430917
  Force max component initial, final = 0.0430917 0.0430917
  Final line search alpha, max atom move = 0.117509 0.00506366
  Iterations, force evaluations = 0 0

MPI task timing breakdown:
Section |  min time  |  avg time  |  max time  |%varavg| %total
---------------------------------------------------------------
Pair    | 0          | 0          | 0          |   0.0 |  0.00
Kspace  | 0          | 0          | 0          |   0.0 |  0.00
Neigh   | 0          | 0          | 0          |   0.0 |  0.00
Comm    | 0          | 0          | 0          |   0.0 |  0.00
Output  | 0          | 0          | 0          |   0.0 |  0.00
Modify  | 0          | 0          | 0          |   0.0 |  0.00
Other   |            | 2.027e-06  |            |       |100.00

Nlocal:    1.5 ave 3 max 0 min
Histogram: 1 0 0 0 0 0 0 0 0 1
Nghost:    1.5 ave 3 max 0 min
Histogram: 1 0 0 0 0 0 0 0 0 1
Neighs:    1.5 ave 3 max 0 min
Histogram: 1 0 0 0 0 0 0 0 0 1

Total # of neighbors = 3
Ave neighs/atom = 1
Neighbor list builds = 0
Dangerous builds = 0
WARNING: Resetting reneighboring criteria during minimization (../min.cpp:168)
Ewald initialization ...
  G vector (1/distance) = 0.301603
  estimated absolute RMS force accuracy = 1.61219e-05
  estimated relative force accuracy = 1.11961e-06
  KSpace vectors: actual max1d max3d = 7073 15 14895
                  kxmax kymax kzmax  = 15 15 15
Memory usage per processor = 7.81272 Mbytes
Step Temp E_pair E_mol TotEng Press 
     528    20267.431   -14.531045            0   -9.2915031   -17.661749 
     550    20267.431   -18.635819            0   -13.396277   -39.434932 
     568    20267.431   -30.527911            0   -25.288369    29.771681 
Loop time of 0.0242109 on 2 procs for 40 steps with 3 atoms

99.1% CPU use with 2 MPI tasks x no OpenMP threads

Minimization stats:
  Stopping criterion = force tolerance
  Energy initial, next-to-last, final = 
        -14.5310452404     -30.5279110313     -30.5279110311
  Force two-norm initial, final = 0.0430917 1.7732e-10
  Force max component initial, final = 0.0430917 1.7732e-10
  Final line search alpha, max atom move = 1 1.7732e-10
  Iterations, force evaluations = 40 44

MPI task timing breakdown:
Section |  min time  |  avg time  |  max time  |%varavg| %total
---------------------------------------------------------------
Pair    | 5.9605e-06 | 1.8239e-05 | 3.0518e-05 |   0.3 |  0.08
Kspace  | 0.012      | 0.017876   | 0.023751   |   4.4 | 73.83
Neigh   | 2.1458e-06 | 2.5034e-06 | 2.861e-06  |   0.0 |  0.01
Comm    | 7.9393e-05 | 9.203e-05  | 0.00010467 |   0.1 |  0.38
Output  | 1.1921e-05 | 1.3947e-05 | 1.5974e-05 |   0.1 |  0.06
Modify  | 7.1526e-06 | 7.987e-06  | 8.8215e-06 |   0.0 |  0.03
Other   |            | 0.0062     |            |       | 25.61

Nlocal:    1.5 ave 3 max 0 min
Histogram: 1 0 0 0 0 0 0 0 0 1
Nghost:    1.5 ave 3 max 0 min
Histogram: 1 0 0 0 0 0 0 0 0 1
Neighs:    1.5 ave 3 max 0 min
Histogram: 1 0 0 0 0 0 0 0 0 1

Total # of neighbors = 3
Ave neighs/atom = 1
Neighbor list builds = 7
Dangerous builds = 0
WARNING: Resetting reneighboring criteria during minimization (../min.cpp:168)
Ewald initialization ...
  G vector (1/distance) = 0.301603
  estimated absolute RMS force accuracy = 1.61219e-05
  estimated relative force accuracy = 1.11961e-06
  KSpace vectors: actual max1d max3d = 7073 15 14895
                  kxmax kymax kzmax  = 15 15 15
Memory usage per processor = 7.81272 Mbytes
Step Temp E_pair E_mol TotEng Press 
     568    20267.431   -14.594021            0   -9.3544791   -17.959936 
Loop time of 1.90735e-06 on 2 procs for 0 steps with 3 atoms

0.0% CPU use with 2 MPI tasks x no OpenMP threads

Minimization stats:
  Stopping criterion = max iterations
  Energy initial, next-to-last, final = 
        -14.5940213131     -30.5279110313     -14.5940213131
  Force two-norm initial, final = 0.418507 0.418507
  Force max component initial, final = 0.418507 0.418507
  Final line search alpha, max atom move = 1 0.418507
  Iterations, force evaluations = 0 0

MPI task timing breakdown:
Section |  min time  |  avg time  |  max time  |%varavg| %total
---------------------------------------------------------------
Pair    | 0          | 0          | 0          |   0.0 |  0.00
Kspace  | 0          | 0          | 0          |   0.0 |  0.00
Neigh   | 0          | 0          | 0          |   0.0 |  0.00
Comm    | 0          | 0          | 0          |   0.0 |  0.00
Output  | 0          | 0          | 0          |   0.0 |  0.00
Modify  | 0          | 0          | 0          |   0.0 |  0.00
Other   |            | 1.907e-06  |            |       |100.00

Nlocal:    1.5 ave 3 max 0 min
Histogram: 1 0 0 0 0 0 0 0 0 1
Nghost:    1.5 ave 3 max 0 min
Histogram: 1 0 0 0 0 0 0 0 0 1
Neighs:    1.5 ave 3 max 0 min
Histogram: 1 0 0 0 0 0 0 0 0 1

Total # of neighbors = 3
Ave neighs/atom = 1
Neighbor list builds = 0
Dangerous builds = 0
WARNING: Resetting reneighboring criteria during minimization (../min.cpp:168)
Ewald initialization ...
  G vector (1/distance) = 0.301603
  estimated absolute RMS force accuracy = 1.61219e-05
  estimated relative force accuracy = 1.11961e-06
  KSpace vectors: actual max1d max3d = 7073 15 14895
                  kxmax kymax kzmax  = 15 15 15
Memory usage per processor = 7.81272 Mbytes
Step Temp E_pair E_mol TotEng Press 
     568    20267.431   -14.594021            0   -9.3544791   -17.959936 
Loop time of 1.90735e-06 on 2 procs for 0 steps with 3 atoms

0.0% CPU use with 2 MPI tasks x no OpenMP threads

Minimization stats:
  Stopping criterion = max iterations
  Energy initial, next-to-last, final = 
        -14.5940213131     -30.5279110313     -14.5940213131
  Force two-norm initial, final = 0.418507 0.418507
  Force max component initial, final = 0.418507 0.418507
  Final line search alpha, max atom move = 1 0.418507
  Iterations, force evaluations = 0 0

MPI task timing breakdown:
Section |  min time  |  avg time  |  max time  |%varavg| %total
---------------------------------------------------------------
Pair    | 0          | 0          | 0          |   0.0 |  0.00
Kspace  | 0          | 0          | 0          |   0.0 |  0.00
Neigh   | 0          | 0          | 0          |   0.0 |  0.00
Comm    | 0          | 0          | 0          |   0.0 |  0.00
Output  | 0          | 0          | 0          |   0.0 |  0.00
Modify  | 0          | 0          | 0          |   0.0 |  0.00
Other   |            | 1.907e-06  |            |       |100.00

Nlocal:    1.5 ave 3 max 0 min
Histogram: 1 0 0 0 0 0 0 0 0 1
Nghost:    1.5 ave 3 max 0 min
Histogram: 1 0 0 0 0 0 0 0 0 1
Neighs:    1.5 ave 3 max 0 min
Histogram: 1 0 0 0 0 0 0 0 0 1

Total # of neighbors = 3
Ave neighs/atom = 1
Neighbor list builds = 0
Dangerous builds = 0
WARNING: Resetting reneighboring criteria during minimization (../min.cpp:168)
Ewald initialization ...
  G vector (1/distance) = 0.301603
  estimated absolute RMS force accuracy = 1.61219e-05
  estimated relative force accuracy = 1.11961e-06
  KSpace vectors: actual max1d max3d = 7073 15 14895
                  kxmax kymax kzmax  = 15 15 15
Memory usage per processor = 7.81272 Mbytes
Step Temp E_pair E_mol TotEng Press 
     568    20267.431   -14.594021            0   -9.3544791   -17.959936 
     600    20267.431     -30.1823            0   -24.942758   -8.1153903 
     605    20267.431   -30.527911            0   -25.288369    29.771681 
Loop time of 0.0224919 on 2 procs for 37 steps with 3 atoms

102.2% CPU use with 2 MPI tasks x no OpenMP threads

Minimization stats:
  Stopping criterion = force tolerance
  Energy initial, next-to-last, final = 
        -14.5940213131     -30.5279110317     -30.5279110311
  Force two-norm initial, final = 0.418507 8.41794e-10
  Force max component initial, final = 0.418507 8.41794e-10
  Final line search alpha, max atom move = 1 8.41794e-10
  Iterations, force evaluations = 37 41

MPI task timing breakdown:
Section |  min time  |  avg time  |  max time  |%varavg| %total
---------------------------------------------------------------
Pair    | 6.9141e-06 | 1.5736e-05 | 2.4557e-05 |   0.2 |  0.07
Kspace  | 0.01109    | 0.016577   | 0.022064   |   4.3 | 73.70
Neigh   | 9.5367e-07 | 9.5367e-07 | 9.5367e-07 |   0.0 |  0.00
Comm    | 7.2002e-05 | 8.44e-05   | 9.6798e-05 |   0.1 |  0.38
Output  | 1.1206e-05 | 1.3113e-05 | 1.502e-05  |   0.1 |  0.06
Modify  | 4.7684e-06 | 8.4639e-06 | 1.2159e-05 |   0.1 |  0.04
Other   |            | 0.005792   |            |       | 25.75

Nlocal:    1.5 ave 3 max 0 min
Histogram: 1 0 0 0 0 0 0 0 0 1
Nghost:    1.5 ave 3 max 0 min
Histogram: 1 0 0 0 0 0 0 0 0 1
Neighs:    1.5 ave 3 max 0 min
Histogram: 1 0 0 0 0 0 0 0 0 1

Total # of neighbors = 3
Ave neighs/atom = 1
Neighbor list builds = 6
Dangerous builds = 0
WARNING: Resetting reneighboring criteria during minimization (../min.cpp:168)
Ewald initialization ...
  G vector (1/distance) = 0.301603
  estimated absolute RMS force accuracy = 1.61219e-05
  estimated relative force accuracy = 1.11961e-06
  KSpace vectors: actual max1d max3d = 7073 15 14895
                  kxmax kymax kzmax  = 15 15 15
Memory usage per processor = 7.81272 Mbytes
Step Temp E_pair E_mol TotEng Press 
     605    20267.431   -14.543102            0   -9.3035599   -17.718762 
Loop time of 1.90735e-06 on 2 procs for 0 steps with 3 atoms

0.0% CPU use with 2 MPI tasks x no OpenMP threads

Minimization stats:
  Stopping criterion = max iterations
  Energy initial, next-to-last, final = 
         -14.543102095     -30.5279110317      -14.543102095
  Force two-norm initial, final = 0.186296 0.186296
  Force max component initial, final = 0.186296 0.186296
  Final line search alpha, max atom move = 1 0.186296
  Iterations, force evaluations = 0 0

MPI task timing breakdown:
Section |  min time  |  avg time  |  max time  |%varavg| %total
---------------------------------------------------------------
Pair    | 0          | 0          | 0          |   0.0 |  0.00
Kspace  | 0          | 0          | 0          |   0.0 |  0.00
Neigh   | 0          | 0          | 0          |   0.0 |  0.00
Comm    | 0          | 0          | 0          |   0.0 |  0.00
Output  | 0          | 0          | 0          |   0.0 |  0.00
Modify  | 0          | 0          | 0          |   0.0 |  0.00
Other   |            | 1.907e-06  |            |       |100.00

Nlocal:    1.5 ave 3 max 0 min
Histogram: 1 0 0 0 0 0 0 0 0 1
Nghost:    1.5 ave 3 max 0 min
Histogram: 1 0 0 0 0 0 0 0 0 1
Neighs:    1.5 ave 3 max 0 min
Histogram: 1 0 0 0 0 0 0 0 0 1

Total # of neighbors = 3
Ave neighs/atom = 1
Neighbor list builds = 0
Dangerous builds = 0
WARNING: Resetting reneighboring criteria during minimization (../min.cpp:168)
Ewald initialization ...
  G vector (1/distance) = 0.301603
  estimated absolute RMS force accuracy = 1.61219e-05
  estimated relative force accuracy = 1.11961e-06
  KSpace vectors: actual max1d max3d = 7073 15 14895
                  kxmax kymax kzmax  = 15 15 15
Memory usage per processor = 7.81272 Mbytes
Step Temp E_pair E_mol TotEng Press 
     605    20267.431   -14.543102            0   -9.3035599   -17.718762 
Loop time of 1.19209e-06 on 2 procs for 0 steps with 3 atoms

0.0% CPU use with 2 MPI tasks x no OpenMP threads

Minimization stats:
  Stopping criterion = max iterations
  Energy initial, next-to-last, final = 
         -14.543102095     -30.5279110317      -14.543102095
  Force two-norm initial, final = 0.186296 0.186296
  Force max component initial, final = 0.186296 0.186296
  Final line search alpha, max atom move = 1 0.186296
  Iterations, force evaluations = 0 0

MPI task timing breakdown:
Section |  min time  |  avg time  |  max time  |%varavg| %total
---------------------------------------------------------------
Pair    | 0          | 0          | 0          |   0.0 |  0.00
Kspace  | 0          | 0          | 0          |   0.0 |  0.00
Neigh   | 0          | 0          | 0          |   0.0 |  0.00
Comm    | 0          | 0          | 0          |   0.0 |  0.00
Output  | 0          | 0          | 0          |   0.0 |  0.00
Modify  | 0          | 0          | 0          |   0.0 |  0.00
Other   |            | 1.192e-06  |            |       |100.00

Nlocal:    1.5 ave 3 max 0 min
Histogram: 1 0 0 0 0 0 0 0 0 1
Nghost:    1.5 ave 3 max 0 min
Histogram: 1 0 0 0 0 0 0 0 0 1
Neighs:    1.5 ave 3 max 0 min
Histogram: 1 0 0 0 0 0 0 0 0 1

Total # of neighbors = 3
Ave neighs/atom = 1
Neighbor list builds = 0
Dangerous builds = 0
WARNING: Resetting reneighboring criteria during minimization (../min.cpp:168)
Ewald initialization ...
  G vector (1/distance) = 0.301603
  estimated absolute RMS force accuracy = 1.61219e-05
  estimated relative force accuracy = 1.11961e-06
  KSpace vectors: actual max1d max3d = 7073 15 14895
                  kxmax kymax kzmax  = 15 15 15
Memory usage per processor = 7.81272 Mbytes
Step Temp E_pair E_mol TotEng Press 
     605    20267.431   -14.543102            0   -9.3035599   -17.718762 
     642    20267.431   -30.527911            0   -25.288369    29.771681 
Loop time of 0.0219519 on 2 procs for 37 steps with 3 atoms

100.2% CPU use with 2 MPI tasks x no OpenMP threads

Minimization stats:
  Stopping criterion = force tolerance
  Energy initial, next-to-last, final = 
         -14.543102095     -30.5279110303     -30.5279110311
  Force two-norm initial, final = 0.186296 2.70313e-08
  Force max component initial, final = 0.186296 2.70313e-08
  Final line search alpha, max atom move = 1 2.70313e-08
  Iterations, force evaluations = 37 40

MPI task timing breakdown:
Section |  min time  |  avg time  |  max time  |%varavg| %total
---------------------------------------------------------------
Pair    | 6.9141e-06 | 1.6093e-05 | 2.5272e-05 |   0.2 |  0.07
Kspace  | 0.010772   | 0.016164   | 0.021556   |   4.2 | 73.63
Neigh   | 0          | 4.7684e-07 | 9.5367e-07 |   0.1 |  0.00
Comm    | 9.1076e-05 | 0.00011611 | 0.00014114 |   0.2 |  0.53
Output  | 0          | 0          | 0          |   0.0 |  0.00
Modify  | 8.1062e-06 | 9.656e-06  | 1.1206e-05 |   0.0 |  0.04
Other   |            | 0.005646   |            |       | 25.72

Nlocal:    1.5 ave 3 max 0 min
Histogram: 1 0 0 0 0 0 0 0 0 1
Nghost:    1.5 ave 3 max 0 min
Histogram: 1 0 0 0 0 0 0 0 0 1
Neighs:    1.5 ave 3 max 0 min
Histogram: 1 0 0 0 0 0 0 0 0 1

Total # of neighbors = 3
Ave neighs/atom = 1
Neighbor list builds = 6
Dangerous builds = 0
WARNING: Resetting reneighboring criteria during minimization (../min.cpp:168)
Ewald initialization ...
  G vector (1/distance) = 0.301603
  estimated absolute RMS force accuracy = 1.61219e-05
  estimated relative force accuracy = 1.11961e-06
  KSpace vectors: actual max1d max3d = 7073 15 14895
                  kxmax kymax kzmax  = 15 15 15
Memory usage per processor = 7.81272 Mbytes
Step Temp E_pair E_mol TotEng Press 
     642    20267.431   -14.543102            0   -9.3035599   -17.718762 
     648    20267.431   -14.908352            0   -9.6688101   -19.463539 
Loop time of 0.00324798 on 2 procs for 6 steps with 3 atoms

92.4% CPU use with 2 MPI tasks x no OpenMP threads

Minimization stats:
  Stopping criterion = max iterations
  Energy initial, next-to-last, final = 
         -14.543102095     -14.8109649488      -14.908352288
  Force two-norm initial, final = 0.186296 1.05131
  Force max component initial, final = 0.186296 1.05131
  Final line search alpha, max atom move = 0.111441 0.117159
  Iterations, force evaluations = 6 6

MPI task timing breakdown:
Section |  min time  |  avg time  |  max time  |%varavg| %total
---------------------------------------------------------------
Pair    | 9.5367e-07 | 2.3842e-06 | 3.8147e-06 |   0.1 |  0.07
Kspace  | 0.0016098  | 0.0023907  | 0.0031717  |   1.6 | 73.61
Neigh   | 0          | 5.9605e-07 | 1.1921e-06 |   0.1 |  0.02
Comm    | 1.4067e-05 | 1.6689e-05 | 1.9312e-05 |   0.1 |  0.51
Output  | 1.0967e-05 | 1.2994e-05 | 1.502e-05  |   0.1 |  0.40
Modify  | 0          | 4.7684e-07 | 9.5367e-07 |   0.1 |  0.01
Other   |            | 0.0008241  |            |       | 25.37

Nlocal:    1.5 ave 3 max 0 min
Histogram: 1 0 0 0 0 0 0 0 0 1
Nghost:    1.5 ave 3 max 0 min
Histogram: 1 0 0 0 0 0 0 0 0 1
Neighs:    1.5 ave 3 max 0 min
Histogram: 1 0 0 0 0 0 0 0 0 1

Total # of neighbors = 3
Ave neighs/atom = 1
Neighbor list builds = 1
Dangerous builds = 0
WARNING: Resetting reneighboring criteria during minimization (../min.cpp:168)
Ewald initialization ...
  G vector (1/distance) = 0.301603
  estimated absolute RMS force accuracy = 1.61219e-05
  estimated relative force accuracy = 1.11961e-06
  KSpace vectors: actual max1d max3d = 7073 15 14895
                  kxmax kymax kzmax  = 15 15 15
Memory usage per processor = 7.81272 Mbytes
Step Temp E_pair E_mol TotEng Press 
     648    20267.431   -14.531045            0   -9.2915031   -17.661749 
     650    20267.431   -14.551149            0   -9.3116064   -17.756824 
     654    20267.431   -14.758154            0   -9.5186117   -18.741818 
Loop time of 0.00330997 on 2 procs for 6 steps with 3 atoms

105.7% CPU use with 2 MPI tasks x no OpenMP threads

Minimization stats:
  Stopping criterion = max iterations
  Energy initial, next-to-last, final = 
        -14.5310452404     -14.6850588824     -14.7581539157
  Force two-norm initial, final = 0.0430917 0.804375
  Force max component initial, final = 0.0430917 0.804375
  Final line search alpha, max atom move = 0.151931 0.122209
  Iterations, force evaluations = 6 6

MPI task timing breakdown:
Section |  min time  |  avg time  |  max time  |%varavg| %total
---------------------------------------------------------------
Pair    | 9.5367e-07 | 1.5497e-06 | 2.1458e-06 |   0.0 |  0.05
Kspace  | 0.0016501  | 0.0024362  | 0.0032222  |   1.6 | 73.60
Neigh   | 0          | 0          | 0          |   0.0 |  0.00
Comm    | 1.3828e-05 | 1.3947e-05 | 1.4067e-05 |   0.0 |  0.42
Output  | 2.1935e-05 | 2.5511e-05 | 2.9087e-05 |   0.1 |  0.77
Modify  | 1.9073e-06 | 2.0266e-06 | 2.1458e-06 |   0.0 |  0.06
Other   |            | 0.0008308  |            |       | 25.10

Nlocal:    1.5 ave 3 max 0 min
Histogram: 1 0 0 0 0 0 0 0 0 1
Nghost:    1.5 ave 3 max 0 min
Histogram: 1 0 0 0 0 0 0 0 0 1
Neighs:    1.5 ave 3 max 0 min
Histogram: 1 0 0 0 0 0 0 0 0 1

Total # of neighbors = 3
Ave neighs/atom = 1
Neighbor list builds = 1
Dangerous builds = 0
WARNING: Resetting reneighboring criteria during minimization (../min.cpp:168)
Ewald initialization ...
  G vector (1/distance) = 0.301603
  estimated absolute RMS force accuracy = 1.61219e-05
  estimated relative force accuracy = 1.11961e-06
  KSpace vectors: actual max1d max3d = 7073 15 14895
                  kxmax kymax kzmax  = 15 15 15
Memory usage per processor = 7.81272 Mbytes
Step Temp E_pair E_mol TotEng Press 
     654    20267.431   -14.534825            0   -9.2952829   -17.679618 
Loop time of 2.14577e-06 on 2 procs for 0 steps with 3 atoms

0.0% CPU use with 2 MPI tasks x no OpenMP threads

Minimization stats:
  Stopping criterion = max iterations
  Energy initial, next-to-last, final = 
        -14.5348250831     -14.6850588824     -14.5348250831
  Force two-norm initial, final = 0.110175 0.110175
  Force max component initial, final = 0.110175 0.110175
  Final line search alpha, max atom move = 0.151931 0.016739
  Iterations, force evaluations = 0 0

MPI task timing breakdown:
Section |  min time  |  avg time  |  max time  |%varavg| %total
---------------------------------------------------------------
Pair    | 0          | 0          | 0          |   0.0 |  0.00
Kspace  | 0          | 0          | 0          |   0.0 |  0.00
Neigh   | 0          | 0          | 0          |   0.0 |  0.00
Comm    | 0          | 0          | 0          |   0.0 |  0.00
Output  | 0          | 0          | 0          |   0.0 |  0.00
Modify  | 0          | 0          | 0          |   0.0 |  0.00
Other   |            | 2.146e-06  |            |       |100.00

Nlocal:    1.5 ave 3 max 0 min
Histogram: 1 0 0 0 0 0 0 0 0 1
Nghost:    1.5 ave 3 max 0 min
Histogram: 1 0 0 0 0 0 0 0 0 1
Neighs:    1.5 ave 3 max 0 min
Histogram: 1 0 0 0 0 0 0 0 0 1

Total # of neighbors = 3
Ave neighs/atom = 1
Neighbor list builds = 0
Dangerous builds = 0
WARNING: Resetting reneighboring criteria during minimization (../min.cpp:168)
Ewald initialization ...
  G vector (1/distance) = 0.301603
  estimated absolute RMS force accuracy = 1.61219e-05
  estimated relative force accuracy = 1.11961e-06
  KSpace vectors: actual max1d max3d = 7073 15 14895
                  kxmax kymax kzmax  = 15 15 15
Memory usage per processor = 7.81272 Mbytes
Step Temp E_pair E_mol TotEng Press 
     654    20267.431   -14.534825            0   -9.2952829   -17.679618 
Loop time of 1.43051e-06 on 2 procs for 0 steps with 3 atoms

0.0% CPU use with 2 MPI tasks x no OpenMP threads

Minimization stats:
  Stopping criterion = max iterations
  Energy initial, next-to-last, final = 
        -14.5348250831     -14.6850588824     -14.5348250831
  Force two-norm initial, final = 0.110175 0.110175
  Force max component initial, final = 0.110175 0.110175
  Final line search alpha, max atom move = 0.151931 0.016739
  Iterations, force evaluations = 0 0

MPI task timing breakdown:
Section |  min time  |  avg time  |  max time  |%varavg| %total
---------------------------------------------------------------
Pair    | 0          | 0          | 0          |   0.0 |  0.00
Kspace  | 0          | 0          | 0          |   0.0 |  0.00
Neigh   | 0          | 0          | 0          |   0.0 |  0.00
Comm    | 0          | 0          | 0          |   0.0 |  0.00
Output  | 0          | 0          | 0          |   0.0 |  0.00
Modify  | 0          | 0          | 0          |   0.0 |  0.00
Other   |            | 1.431e-06  |            |       |100.00

Nlocal:    1.5 ave 3 max 0 min
Histogram: 1 0 0 0 0 0 0 0 0 1
Nghost:    1.5 ave 3 max 0 min
Histogram: 1 0 0 0 0 0 0 0 0 1
Neighs:    1.5 ave 3 max 0 min
Histogram: 1 0 0 0 0 0 0 0 0 1

Total # of neighbors = 3
Ave neighs/atom = 1
Neighbor list builds = 0
Dangerous builds = 0
WARNING: Resetting reneighboring criteria during minimization (../min.cpp:168)
Ewald initialization ...
  G vector (1/distance) = 0.301603
  estimated absolute RMS force accuracy = 1.61219e-05
  estimated relative force accuracy = 1.11961e-06
  KSpace vectors: actual max1d max3d = 7073 15 14895
                  kxmax kymax kzmax  = 15 15 15
Memory usage per processor = 7.81272 Mbytes
Step Temp E_pair E_mol TotEng Press 
     654    20267.431   -14.534825            0   -9.2952829   -17.679618 
     693    20267.431   -30.527911            0   -25.288369    29.771681 
Loop time of 0.0236351 on 2 procs for 39 steps with 3 atoms

101.5% CPU use with 2 MPI tasks x no OpenMP threads

Minimization stats:
  Stopping criterion = force tolerance
  Energy initial, next-to-last, final = 
        -14.5348250831     -30.5279110316     -30.5279110311
  Force two-norm initial, final = 0.110175 6.70413e-10
  Force max component initial, final = 0.110175 6.70413e-10
  Final line search alpha, max atom move = 1 6.70413e-10
  Iterations, force evaluations = 39 43

MPI task timing breakdown:
Section |  min time  |  avg time  |  max time  |%varavg| %total
---------------------------------------------------------------
Pair    | 5.4836e-06 | 1.5855e-05 | 2.6226e-05 |   0.3 |  0.07
Kspace  | 0.011711   | 0.01746    | 0.023209   |   4.4 | 73.87
Neigh   | 9.5367e-07 | 2.0266e-06 | 3.0994e-06 |   0.1 |  0.01
Comm    | 7.7486e-05 | 9.2626e-05 | 0.00010777 |   0.2 |  0.39
Output  | 0          | 0          | 0          |   0.0 |  0.00
Modify  | 4.7684e-06 | 7.2718e-06 | 9.7752e-06 |   0.1 |  0.03
Other   |            | 0.006057   |            |       | 25.63

Nlocal:    1.5 ave 3 max 0 min
Histogram: 1 0 0 0 0 0 0 0 0 1
Nghost:    1.5 ave 3 max 0 min
Histogram: 1 0 0 0 0 0 0 0 0 1
Neighs:    1.5 ave 3 max 0 min
Histogram: 1 0 0 0 0 0 0 0 0 1

Total # of neighbors = 3
Ave neighs/atom = 1
Neighbor list builds = 6
Dangerous builds = 0
WARNING: Resetting reneighboring criteria during minimization (../min.cpp:168)
Ewald initialization ...
  G vector (1/distance) = 0.301603
  estimated absolute RMS force accuracy = 1.61219e-05
  estimated relative force accuracy = 1.11961e-06
  KSpace vectors: actual max1d max3d = 7073 15 14895
                  kxmax kymax kzmax  = 15 15 15
Memory usage per processor = 7.81272 Mbytes
Step Temp E_pair E_mol TotEng Press 
     693    20267.431   -14.571881            0   -9.3323388   -17.854982 
Loop time of 1.90735e-06 on 2 procs for 0 steps with 3 atoms

0.0% CPU use with 2 MPI tasks x no OpenMP threads

Minimization stats:
  Stopping criterion = max iterations
  Energy initial, next-to-last, final = 
        -14.5718809773     -30.5279110316     -14.5718809773
  Force two-norm initial, final = 0.337259 0.337259
  Force max component initial, final = 0.337259 0.337259
  Final line search alpha, max atom move = 1 0.337259
  Iterations, force evaluations = 0 0

MPI task timing breakdown:
Section |  min time  |  avg time  |  max time  |%varavg| %total
---------------------------------------------------------------
Pair    | 0          | 0          | 0          |   0.0 |  0.00
Kspace  | 0          | 0          | 0          |   0.0 |  0.00
Neigh   | 0          | 0          | 0          |   0.0 |  0.00
Comm    | 0          | 0          | 0          |   0.0 |  0.00
Output  | 0          | 0          | 0          |   0.0 |  0.00
Modify  | 0          | 0          | 0          |   0.0 |  0.00
Other   |            | 1.907e-06  |            |       |100.00

Nlocal:    1.5 ave 3 max 0 min
Histogram: 1 0 0 0 0 0 0 0 0 1
Nghost:    1.5 ave 3 max 0 min
Histogram: 1 0 0 0 0 0 0 0 0 1
Neighs:    1.5 ave 3 max 0 min
Histogram: 1 0 0 0 0 0 0 0 0 1

Total # of neighbors = 3
Ave neighs/atom = 1
Neighbor list builds = 0
Dangerous builds = 0
WARNING: Resetting reneighboring criteria during minimization (../min.cpp:168)
Ewald initialization ...
  G vector (1/distance) = 0.301603
  estimated absolute RMS force accuracy = 1.61219e-05
  estimated relative force accuracy = 1.11961e-06
  KSpace vectors: actual max1d max3d = 7073 15 14895
                  kxmax kymax kzmax  = 15 15 15
Memory usage per processor = 7.81272 Mbytes
Step Temp E_pair E_mol TotEng Press 
     693    20267.431   -14.571881            0   -9.3323388   -17.854982 
Loop time of 2.14577e-06 on 2 procs for 0 steps with 3 atoms

0.0% CPU use with 2 MPI tasks x no OpenMP threads

Minimization stats:
  Stopping criterion = max iterations
  Energy initial, next-to-last, final = 
        -14.5718809773     -30.5279110316     -14.5718809773
  Force two-norm initial, final = 0.337259 0.337259
  Force max component initial, final = 0.337259 0.337259
  Final line search alpha, max atom move = 1 0.337259
  Iterations, force evaluations = 0 0

MPI task timing breakdown:
Section |  min time  |  avg time  |  max time  |%varavg| %total
---------------------------------------------------------------
Pair    | 0          | 0          | 0          |   0.0 |  0.00
Kspace  | 0          | 0          | 0          |   0.0 |  0.00
Neigh   | 0          | 0          | 0          |   0.0 |  0.00
Comm    | 0          | 0          | 0          |   0.0 |  0.00
Output  | 0          | 0          | 0          |   0.0 |  0.00
Modify  | 0          | 0          | 0          |   0.0 |  0.00
Other   |            | 2.146e-06  |            |       |100.00

Nlocal:    1.5 ave 3 max 0 min
Histogram: 1 0 0 0 0 0 0 0 0 1
Nghost:    1.5 ave 3 max 0 min
Histogram: 1 0 0 0 0 0 0 0 0 1
Neighs:    1.5 ave 3 max 0 min
Histogram: 1 0 0 0 0 0 0 0 0 1

Total # of neighbors = 3
Ave neighs/atom = 1
Neighbor list builds = 0
Dangerous builds = 0
WARNING: Resetting reneighboring criteria during minimization (../min.cpp:168)
Ewald initialization ...
  G vector (1/distance) = 0.301603
  estimated absolute RMS force accuracy = 1.61219e-05
  estimated relative force accuracy = 1.11961e-06
  KSpace vectors: actual max1d max3d = 7073 15 14895
                  kxmax kymax kzmax  = 15 15 15
Memory usage per processor = 7.81272 Mbytes
Step Temp E_pair E_mol TotEng Press 
     693    20267.431   -14.571881            0   -9.3323388   -17.854982 
     700    20267.431   -15.164748            0   -9.9252063   -20.709867 
     729    20267.431   -30.527911            0   -25.288369    29.771681 
Loop time of 0.0214145 on 2 procs for 36 steps with 3 atoms

100.4% CPU use with 2 MPI tasks x no OpenMP threads

Minimization stats:
  Stopping criterion = force tolerance
  Energy initial, next-to-last, final = 
        -14.5718809773     -30.5279110313     -30.5279110311
  Force two-norm initial, final = 0.337259 2.41662e-11
  Force max component initial, final = 0.337259 2.41662e-11
  Final line search alpha, max atom move = 1 2.41662e-11
  Iterations, force evaluations = 36 39

MPI task timing breakdown:
Section |  min time  |  avg time  |  max time  |%varavg| %total
---------------------------------------------------------------
Pair    | 2.861e-06  | 1.1086e-05 | 1.9312e-05 |   0.2 |  0.05
Kspace  | 0.010547   | 0.015775   | 0.021004   |   4.2 | 73.67
Neigh   | 1.9073e-06 | 2.0266e-06 | 2.1458e-06 |   0.0 |  0.01
Comm    | 7.6294e-05 | 8.6546e-05 | 9.6798e-05 |   0.1 |  0.40
Output  | 1.0967e-05 | 1.2517e-05 | 1.4067e-05 |   0.0 |  0.06
Modify  | 3.3379e-06 | 7.0333e-06 | 1.0729e-05 |   0.1 |  0.03
Other   |            | 0.00552    |            |       | 25.78

Nlocal:    1.5 ave 3 max 0 min
Histogram: 1 0 0 0 0 0 0 0 0 1
Nghost:    1.5 ave 3 max 0 min
Histogram: 1 0 0 0 0 0 0 0 0 1
Neighs:    1.5 ave 3 max 0 min
Histogram: 1 0 0 0 0 0 0 0 0 1

Total # of neighbors = 3
Ave neighs/atom = 1
Neighbor list builds = 6
Dangerous builds = 0
WARNING: Resetting reneighboring criteria during minimization (../min.cpp:168)
Ewald initialization ...
  G vector (1/distance) = 0.301603
  estimated absolute RMS force accuracy = 1.61219e-05
  estimated relative force accuracy = 1.11961e-06
  KSpace vectors: actual max1d max3d = 7073 15 14895
                  kxmax kymax kzmax  = 15 15 15
Memory usage per processor = 7.81272 Mbytes
Step Temp E_pair E_mol TotEng Press 
     729    20267.431   -14.535035            0   -9.2954927   -17.680612 
Loop time of 3.09944e-06 on 2 procs for 0 steps with 3 atoms

0.0% CPU use with 2 MPI tasks x no OpenMP threads

Minimization stats:
  Stopping criterion = max iterations
  Energy initial, next-to-last, final = 
        -14.5350349305     -30.5279110313     -14.5350349305
  Force two-norm initial, final = 0.112736 0.112736
  Force max component initial, final = 0.112736 0.112736
  Final line search alpha, max atom move = 1 0.112736
  Iterations, force evaluations = 0 0

MPI task timing breakdown:
Section |  min time  |  avg time  |  max time  |%varavg| %total
---------------------------------------------------------------
Pair    | 0          | 0          | 0          |   0.0 |  0.00
Kspace  | 0          | 0          | 0          |   0.0 |  0.00
Neigh   | 0          | 0          | 0          |   0.0 |  0.00
Comm    | 0          | 0          | 0          |   0.0 |  0.00
Output  | 0          | 0          | 0          |   0.0 |  0.00
Modify  | 0          | 0          | 0          |   0.0 |  0.00
Other   |            | 3.099e-06  |            |       |100.00

Nlocal:    1.5 ave 3 max 0 min
Histogram: 1 0 0 0 0 0 0 0 0 1
Nghost:    1.5 ave 3 max 0 min
Histogram: 1 0 0 0 0 0 0 0 0 1
Neighs:    1.5 ave 3 max 0 min
Histogram: 1 0 0 0 0 0 0 0 0 1

Total # of neighbors = 3
Ave neighs/atom = 1
Neighbor list builds = 0
Dangerous builds = 0
WARNING: Resetting reneighboring criteria during minimization (../min.cpp:168)
Ewald initialization ...
  G vector (1/distance) = 0.301603
  estimated absolute RMS force accuracy = 1.61219e-05
  estimated relative force accuracy = 1.11961e-06
  KSpace vectors: actual max1d max3d = 7073 15 14895
                  kxmax kymax kzmax  = 15 15 15
Memory usage per processor = 7.81272 Mbytes
Step Temp E_pair E_mol TotEng Press 
     729    20267.431   -14.535035            0   -9.2954927   -17.680612 
Loop time of 1.90735e-06 on 2 procs for 0 steps with 3 atoms

0.0% CPU use with 2 MPI tasks x no OpenMP threads

Minimization stats:
  Stopping criterion = max iterations
  Energy initial, next-to-last, final = 
        -14.5350349305     -30.5279110313     -14.5350349305
  Force two-norm initial, final = 0.112736 0.112736
  Force max component initial, final = 0.112736 0.112736
  Final line search alpha, max atom move = 1 0.112736
  Iterations, force evaluations = 0 0

MPI task timing breakdown:
Section |  min time  |  avg time  |  max time  |%varavg| %total
---------------------------------------------------------------
Pair    | 0          | 0          | 0          |   0.0 |  0.00
Kspace  | 0          | 0          | 0          |   0.0 |  0.00
Neigh   | 0          | 0          | 0          |   0.0 |  0.00
Comm    | 0          | 0          | 0          |   0.0 |  0.00
Output  | 0          | 0          | 0          |   0.0 |  0.00
Modify  | 0          | 0          | 0          |   0.0 |  0.00
Other   |            | 1.907e-06  |            |       |100.00

Nlocal:    1.5 ave 3 max 0 min
Histogram: 1 0 0 0 0 0 0 0 0 1
Nghost:    1.5 ave 3 max 0 min
Histogram: 1 0 0 0 0 0 0 0 0 1
Neighs:    1.5 ave 3 max 0 min
Histogram: 1 0 0 0 0 0 0 0 0 1

Total # of neighbors = 3
Ave neighs/atom = 1
Neighbor list builds = 0
Dangerous builds = 0
WARNING: Resetting reneighboring criteria during minimization (../min.cpp:168)
Ewald initialization ...
  G vector (1/distance) = 0.301603
  estimated absolute RMS force accuracy = 1.61219e-05
  estimated relative force accuracy = 1.11961e-06
  KSpace vectors: actual max1d max3d = 7073 15 14895
                  kxmax kymax kzmax  = 15 15 15
Memory usage per processor = 7.81272 Mbytes
Step Temp E_pair E_mol TotEng Press 
     729    20267.431   -14.535035            0   -9.2954927   -17.680612 
     750    20267.431   -18.675443            0     -13.4359   -39.663487 
     768    20267.431   -30.527911            0   -25.288369    29.771681 
Loop time of 0.023596 on 2 procs for 39 steps with 3 atoms

99.6% CPU use with 2 MPI tasks x no OpenMP threads

Minimization stats:
  Stopping criterion = force tolerance
  Energy initial, next-to-last, final = 
        -14.5350349305     -30.5279110317     -30.5279110311
  Force two-norm initial, final = 0.112736 7.354e-10
  Force max component initial, final = 0.112736 7.354e-10
  Final line search alpha, max atom move = 1 7.354e-10
  Iterations, force evaluations = 39 43

MPI task timing breakdown:
Section |  min time  |  avg time  |  max time  |%varavg| %total
---------------------------------------------------------------
Pair    | 7.8678e-06 | 1.6928e-05 | 2.5988e-05 |   0.2 |  0.07
Kspace  | 0.011653   | 0.017404   | 0.023154   |   4.4 | 73.76
Neigh   | 9.5367e-07 | 1.5497e-06 | 2.1458e-06 |   0.0 |  0.01
Comm    | 7.4625e-05 | 8.8811e-05 | 0.000103   |   0.2 |  0.38
Output  | 1.0967e-05 | 1.2994e-05 | 1.502e-05  |   0.1 |  0.06
Modify  | 4.0531e-06 | 6.6757e-06 | 9.2983e-06 |   0.1 |  0.03
Other   |            | 0.006065   |            |       | 25.71

Nlocal:    1.5 ave 3 max 0 min
Histogram: 1 0 0 0 0 0 0 0 0 1
Nghost:    1.5 ave 3 max 0 min
Histogram: 1 0 0 0 0 0 0 0 0 1
Neighs:    1.5 ave 3 max 0 min
Histogram: 1 0 0 0 0 0 0 0 0 1

Total # of neighbors = 3
Ave neighs/atom = 1
Neighbor list builds = 6
Dangerous builds = 0
WARNING: Resetting reneighboring criteria during minimization (../min.cpp:168)
Ewald initialization ...
  G vector (1/distance) = 0.301603
  estimated absolute RMS force accuracy = 1.61219e-05
  estimated relative force accuracy = 1.11961e-06
  KSpace vectors: actual max1d max3d = 7073 15 14895
                  kxmax kymax kzmax  = 15 15 15
Memory usage per processor = 7.81272 Mbytes
Step Temp E_pair E_mol TotEng Press 
     768    20267.431   -14.534825            0   -9.2952829   -17.679618 
     774    20267.431    -14.85207            0   -9.6125282   -19.192382 
Loop time of 0.00331402 on 2 procs for 6 steps with 3 atoms

90.5% CPU use with 2 MPI tasks x no OpenMP threads

Minimization stats:
  Stopping criterion = max iterations
  Energy initial, next-to-last, final = 
        -14.5348250831        -14.7631984     -14.8520703375
  Force two-norm initial, final = 0.110175 0.964639
  Force max component initial, final = 0.110175 0.964639
  Final line search alpha, max atom move = 0.122906 0.11856
  Iterations, force evaluations = 6 6

MPI task timing breakdown:
Section |  min time  |  avg time  |  max time  |%varavg| %total
---------------------------------------------------------------
Pair    | 2.1458e-06 | 4.0531e-06 | 5.9605e-06 |   0.1 |  0.12
Kspace  | 0.001663   | 0.0024483  | 0.0032337  |   1.6 | 73.88
Neigh   | 0          | 0          | 0          |   0.0 |  0.00
Comm    | 1.3828e-05 | 1.5974e-05 | 1.812e-05  |   0.1 |  0.48
Output  | 1.1206e-05 | 1.3113e-05 | 1.502e-05  |   0.1 |  0.40
Modify  | 9.5367e-07 | 2.0266e-06 | 3.0994e-06 |   0.1 |  0.06
Other   |            | 0.0008305  |            |       | 25.06

Nlocal:    1.5 ave 3 max 0 min
Histogram: 1 0 0 0 0 0 0 0 0 1
Nghost:    1.5 ave 3 max 0 min
Histogram: 1 0 0 0 0 0 0 0 0 1
Neighs:    1.5 ave 3 max 0 min
Histogram: 1 0 0 0 0 0 0 0 0 1

Total # of neighbors = 3
Ave neighs/atom = 1
Neighbor list builds = 1
Dangerous builds = 0
WARNING: Resetting reneighboring criteria during minimization (../min.cpp:168)
Ewald initialization ...
  G vector (1/distance) = 0.301603
  estimated absolute RMS force accuracy = 1.61219e-05
  estimated relative force accuracy = 1.11961e-06
  KSpace vectors: actual max1d max3d = 7073 15 14895
                  kxmax kymax kzmax  = 15 15 15
Memory usage per processor = 7.81272 Mbytes
Step Temp E_pair E_mol TotEng Press 
     774    20267.431   -14.535035            0   -9.2954927   -17.680612 
     780    20267.431   -14.853889            0   -9.6143464   -19.201134 
Loop time of 0.00328147 on 2 procs for 6 steps with 3 atoms

121.9% CPU use with 2 MPI tasks x no OpenMP threads

Minimization stats:
  Stopping criterion = max iterations
  Energy initial, next-to-last, final = 
        -14.5350349305     -14.7647322178     -14.8538885551
  Force two-norm initial, final = 0.112736 0.96753
  Force max component initial, final = 0.112736 0.96753
  Final line search alpha, max atom move = 0.122485 0.118508
  Iterations, force evaluations = 6 6

MPI task timing breakdown:
Section |  min time  |  avg time  |  max time  |%varavg| %total
---------------------------------------------------------------
Pair    | 1.9073e-06 | 2.9802e-06 | 4.0531e-06 |   0.1 |  0.09
Kspace  | 0.0016384  | 0.0024233  | 0.0032082  |   1.6 | 73.85
Neigh   | 0          | 0          | 0          |   0.0 |  0.00
Comm    | 1.0967e-05 | 1.2875e-05 | 1.4782e-05 |   0.1 |  0.39
Output  | 1.0967e-05 | 1.2994e-05 | 1.502e-05  |   0.1 |  0.40
Modify  | 1.9073e-06 | 2.3842e-06 | 2.861e-06  |   0.0 |  0.07
Other   |            | 0.000827   |            |       | 25.20

Nlocal:    1.5 ave 3 max 0 min
Histogram: 1 0 0 0 0 0 0 0 0 1
Nghost:    1.5 ave 3 max 0 min
Histogram: 1 0 0 0 0 0 0 0 0 1
Neighs:    1.5 ave 3 max 0 min
Histogram: 1 0 0 0 0 0 0 0 0 1

Total # of neighbors = 3
Ave neighs/atom = 1
Neighbor list builds = 1
Dangerous builds = 0
WARNING: Resetting reneighboring criteria during minimization (../min.cpp:168)
Ewald initialization ...
  G vector (1/distance) = 0.301603
  estimated absolute RMS force accuracy = 1.61219e-05
  estimated relative force accuracy = 1.11961e-06
  KSpace vectors: actual max1d max3d = 7073 15 14895
                  kxmax kymax kzmax  = 15 15 15
Memory usage per processor = 7.81272 Mbytes
Step Temp E_pair E_mol TotEng Press 
     780    20267.431   -14.530363            0   -9.2908208   -17.658527 
Loop time of 1.90735e-06 on 2 procs for 0 steps with 3 atoms

0.0% CPU use with 2 MPI tasks x no OpenMP threads

Minimization stats:
  Stopping criterion = max iterations
  Energy initial, next-to-last, final = 
         -14.530362971     -14.7647322178      -14.530362971
  Force two-norm initial, final = 0.00127794 0.00127794
  Force max component initial, final = 0.00127794 0.00127794
  Final line search alpha, max atom move = 0.122485 0.000156528
  Iterations, force evaluations = 0 0

MPI task timing breakdown:
Section |  min time  |  avg time  |  max time  |%varavg| %total
---------------------------------------------------------------
Pair    | 0          | 0          | 0          |   0.0 |  0.00
Kspace  | 0          | 0          | 0          |   0.0 |  0.00
Neigh   | 0          | 0          | 0          |   0.0 |  0.00
Comm    | 0          | 0          | 0          |   0.0 |  0.00
Output  | 0          | 0          | 0          |   0.0 |  0.00
Modify  | 0          | 0          | 0          |   0.0 |  0.00
Other   |            | 1.907e-06  |            |       |100.00

Nlocal:    1.5 ave 3 max 0 min
Histogram: 1 0 0 0 0 0 0 0 0 1
Nghost:    1.5 ave 3 max 0 min
Histogram: 1 0 0 0 0 0 0 0 0 1
Neighs:    1.5 ave 3 max 0 min
Histogram: 1 0 0 0 0 0 0 0 0 1

Total # of neighbors = 3
Ave neighs/atom = 1
Neighbor list builds = 0
Dangerous builds = 0
WARNING: Resetting reneighboring criteria during minimization (../min.cpp:168)
Ewald initialization ...
  G vector (1/distance) = 0.301603
  estimated absolute RMS force accuracy = 1.61219e-05
  estimated relative force accuracy = 1.11961e-06
  KSpace vectors: actual max1d max3d = 7073 15 14895
                  kxmax kymax kzmax  = 15 15 15
Memory usage per processor = 7.81272 Mbytes
Step Temp E_pair E_mol TotEng Press 
     780    20267.431   -14.530363            0   -9.2908208   -17.658527 
Loop time of 1.54972e-06 on 2 procs for 0 steps with 3 atoms

0.0% CPU use with 2 MPI tasks x no OpenMP threads

Minimization stats:
  Stopping criterion = max iterations
  Energy initial, next-to-last, final = 
         -14.530362971     -14.7647322178      -14.530362971
  Force two-norm initial, final = 0.00127794 0.00127794
  Force max component initial, final = 0.00127794 0.00127794
  Final line search alpha, max atom move = 0.122485 0.000156528
  Iterations, force evaluations = 0 0

MPI task timing breakdown:
Section |  min time  |  avg time  |  max time  |%varavg| %total
---------------------------------------------------------------
Pair    | 0          | 0          | 0          |   0.0 |  0.00
Kspace  | 0          | 0          | 0          |   0.0 |  0.00
Neigh   | 0          | 0          | 0          |   0.0 |  0.00
Comm    | 0          | 0          | 0          |   0.0 |  0.00
Output  | 0          | 0          | 0          |   0.0 |  0.00
Modify  | 0          | 0          | 0          |   0.0 |  0.00
Other   |            | 1.55e-06   |            |       |100.00

Nlocal:    1.5 ave 3 max 0 min
Histogram: 1 0 0 0 0 0 0 0 0 1
Nghost:    1.5 ave 3 max 0 min
Histogram: 1 0 0 0 0 0 0 0 0 1
Neighs:    1.5 ave 3 max 0 min
Histogram: 1 0 0 0 0 0 0 0 0 1

Total # of neighbors = 3
Ave neighs/atom = 1
Neighbor list builds = 0
Dangerous builds = 0
WARNING: Resetting reneighboring criteria during minimization (../min.cpp:168)
Ewald initialization ...
  G vector (1/distance) = 0.301603
  estimated absolute RMS force accuracy = 1.61219e-05
  estimated relative force accuracy = 1.11961e-06
  KSpace vectors: actual max1d max3d = 7073 15 14895
                  kxmax kymax kzmax  = 15 15 15
Memory usage per processor = 7.81347 Mbytes
Step Temp E_pair E_mol TotEng Press 
     780    20267.431   -14.515777            0   -9.2762347   -17.593957 
     800    20267.431   -17.289737            0   -12.050195   -31.810026 
     820    20267.431   -30.524457            0   -25.284914    29.794426 
Loop time of 0.023603 on 2 procs for 40 steps with 3 atoms

97.4% CPU use with 2 MPI tasks x no OpenMP threads

Minimization stats:
  Stopping criterion = force tolerance
  Energy initial, next-to-last, final = 
        -14.5157769069     -30.5244565136      -30.524456513
  Force two-norm initial, final = 0.00804662 8.51885e-10
  Force max component initial, final = 0.00804662 8.51885e-10
  Final line search alpha, max atom move = 1 8.51885e-10
  Iterations, force evaluations = 40 43

MPI task timing breakdown:
Section |  min time  |  avg time  |  max time  |%varavg| %total
---------------------------------------------------------------
Pair    | 8.5831e-06 | 1.6689e-05 | 2.4796e-05 |   0.2 |  0.07
Kspace  | 0.011636   | 0.017393   | 0.023151   |   4.4 | 73.69
Neigh   | 2.1458e-06 | 3.0994e-06 | 4.0531e-06 |   0.1 |  0.01
Comm    | 8.9407e-05 | 9.7275e-05 | 0.00010514 |   0.1 |  0.41
Output  | 1.1921e-05 | 1.3471e-05 | 1.502e-05  |   0.0 |  0.06
Modify  | 5.0068e-06 | 7.6294e-06 | 1.0252e-05 |   0.1 |  0.03
Other   |            | 0.006071   |            |       | 25.72

Nlocal:    1.5 ave 3 max 0 min
Histogram: 1 0 0 0 0 0 0 0 0 1
Nghost:    1.5 ave 3 max 0 min
Histogram: 1 0 0 0 0 0 0 0 0 1
Neighs:    1.5 ave 3 max 0 min
Histogram: 1 0 0 0 0 0 0 0 0 1

Total # of neighbors = 3
Ave neighs/atom = 1
Neighbor list builds = 7
Dangerous builds = 0
WARNING: Resetting reneighboring criteria during minimization (../min.cpp:168)
Ewald initialization ...
  G vector (1/distance) = 0.301603
  estimated absolute RMS force accuracy = 1.61219e-05
  estimated relative force accuracy = 1.11961e-06
  KSpace vectors: actual max1d max3d = 7073 15 14895
                  kxmax kymax kzmax  = 15 15 15
Memory usage per processor = 7.81347 Mbytes
Step Temp E_pair E_mol TotEng Press 
     820    20267.431   -14.515777            0   -9.2762347   -17.593957 
     850    20267.431   -23.384462            0    -18.14492   -63.447306 
     860    20267.431   -30.524457            0   -25.284914    29.794426 
Loop time of 0.0235735 on 2 procs for 40 steps with 3 atoms

97.6% CPU use with 2 MPI tasks x no OpenMP threads

Minimization stats:
  Stopping criterion = force tolerance
  Energy initial, next-to-last, final = 
        -14.5157769069     -30.5244565136      -30.524456513
  Force two-norm initial, final = 0.00804662 8.51885e-10
  Force max component initial, final = 0.00804662 8.51885e-10
  Final line search alpha, max atom move = 1 8.51885e-10
  Iterations, force evaluations = 40 43

MPI task timing breakdown:
Section |  min time  |  avg time  |  max time  |%varavg| %total
---------------------------------------------------------------
Pair    | 7.6294e-06 | 1.4067e-05 | 2.0504e-05 |   0.2 |  0.06
Kspace  | 0.011633   | 0.017382   | 0.023131   |   4.4 | 73.73
Neigh   | 9.5367e-07 | 2.5034e-06 | 4.0531e-06 |   0.1 |  0.01
Comm    | 7.391e-05  | 8.6665e-05 | 9.9421e-05 |   0.1 |  0.37
Output  | 1.1921e-05 | 1.3947e-05 | 1.5974e-05 |   0.1 |  0.06
Modify  | 9.0599e-06 | 9.0599e-06 | 9.0599e-06 |   0.0 |  0.04
Other   |            | 0.006065   |            |       | 25.73

Nlocal:    1.5 ave 3 max 0 min
Histogram: 1 0 0 0 0 0 0 0 0 1
Nghost:    1.5 ave 3 max 0 min
Histogram: 1 0 0 0 0 0 0 0 0 1
Neighs:    1.5 ave 3 max 0 min
Histogram: 1 0 0 0 0 0 0 0 0 1

Total # of neighbors = 3
Ave neighs/atom = 1
Neighbor list builds = 7
Dangerous builds = 0
WARNING: Resetting reneighboring criteria during minimization (../min.cpp:168)
Ewald initialization ...
  G vector (1/distance) = 0.301603
  estimated absolute RMS force accuracy = 1.61219e-05
  estimated relative force accuracy = 1.11961e-06
  KSpace vectors: actual max1d max3d = 7073 15 14895
                  kxmax kymax kzmax  = 15 15 15
Memory usage per processor = 7.81272 Mbytes
Step Temp E_pair E_mol TotEng Press 
     860    20267.431   -30.524457            0   -25.284914    29.794426 
Loop time of 3.57628e-06 on 2 procs for 0 steps with 3 atoms

0.0% CPU use with 2 MPI tasks x no OpenMP threads

Minimization stats:
  Stopping criterion = max iterations
  Energy initial, next-to-last, final = 
         -30.524456513     -30.5244565136      -30.524456513
  Force two-norm initial, final = 8.51646e-10 8.51646e-10
  Force max component initial, final = 8.51646e-10 8.51646e-10
  Final line search alpha, max atom move = 1 8.51646e-10
  Iterations, force evaluations = 0 0

MPI task timing breakdown:
Section |  min time  |  avg time  |  max time  |%varavg| %total
---------------------------------------------------------------
Pair    | 0          | 0          | 0          |   0.0 |  0.00
Kspace  | 0          | 0          | 0          |   0.0 |  0.00
Neigh   | 0          | 0          | 0          |   0.0 |  0.00
Comm    | 0          | 0          | 0          |   0.0 |  0.00
Output  | 0          | 0          | 0          |   0.0 |  0.00
Modify  | 0          | 0          | 0          |   0.0 |  0.00
Other   |            | 3.576e-06  |            |       |100.00

Nlocal:    1.5 ave 3 max 0 min
Histogram: 1 0 0 0 0 0 0 0 0 1
Nghost:    1.5 ave 3 max 0 min
Histogram: 1 0 0 0 0 0 0 0 0 1
Neighs:    1.5 ave 3 max 0 min
Histogram: 1 0 0 0 0 0 0 0 0 1

Total # of neighbors = 3
Ave neighs/atom = 1
Neighbor list builds = 0
Dangerous builds = 0
WARNING: Resetting reneighboring criteria during minimization (../min.cpp:168)
Ewald initialization ...
  G vector (1/distance) = 0.301603
  estimated absolute RMS force accuracy = 1.61219e-05
  estimated relative force accuracy = 1.11961e-06
  KSpace vectors: actual max1d max3d = 7073 15 14895
                  kxmax kymax kzmax  = 15 15 15
Memory usage per processor = 7.81272 Mbytes
Step Temp E_pair E_mol TotEng Press 
     860    20267.431   -30.524457            0   -25.284914    29.794426 
Loop time of 3.57628e-06 on 2 procs for 0 steps with 3 atoms

0.0% CPU use with 2 MPI tasks x no OpenMP threads

Minimization stats:
  Stopping criterion = max iterations
  Energy initial, next-to-last, final = 
         -30.524456513     -30.5244565136      -30.524456513
  Force two-norm initial, final = 8.51646e-10 8.51646e-10
  Force max component initial, final = 8.51646e-10 8.51646e-10
  Final line search alpha, max atom move = 1 8.51646e-10
  Iterations, force evaluations = 0 0

MPI task timing breakdown:
Section |  min time  |  avg time  |  max time  |%varavg| %total
---------------------------------------------------------------
Pair    | 0          | 0          | 0          |   0.0 |  0.00
Kspace  | 0          | 0          | 0          |   0.0 |  0.00
Neigh   | 0          | 0          | 0          |   0.0 |  0.00
Comm    | 0          | 0          | 0          |   0.0 |  0.00
Output  | 0          | 0          | 0          |   0.0 |  0.00
Modify  | 0          | 0          | 0          |   0.0 |  0.00
Other   |            | 3.576e-06  |            |       |100.00

Nlocal:    1.5 ave 3 max 0 min
Histogram: 1 0 0 0 0 0 0 0 0 1
Nghost:    1.5 ave 3 max 0 min
Histogram: 1 0 0 0 0 0 0 0 0 1
Neighs:    1.5 ave 3 max 0 min
Histogram: 1 0 0 0 0 0 0 0 0 1

Total # of neighbors = 3
Ave neighs/atom = 1
Neighbor list builds = 0
Dangerous builds = 0
read_dump	dump.min	100	x y z
  triclinic box = (-25 -25 -25) to (25 25 25) with tilt (0 0 0)
  3 atoms before read
  3 atoms in snapshot
  0 atoms purged
  3 atoms replaced
  0 atoms trimmed
  0 atoms added
  3 atoms after read
Total wall time: 0:00:01
